SystemName  Elec-Au-Bot

# Atomic coordinates
NumberOfAtoms 72
AtomicCoordinatesFormat Ang
%block AtomicCoordinatesAndAtomicSpecies
     0.000000000         0.000000000         0.000000000 1
     0.000000000         2.883758307         0.000000000 1
     0.000000000         5.767516613         0.000000000 1
    12.487039566         1.441879153         0.000000000 1
    12.487039566         4.325637341         0.000000000 1
    12.487039566         7.209395885         0.000000000 1
    14.984447479         0.000000000         0.000000000 1
    14.984447479         2.883758307         0.000000000 1
    14.984447479         5.767516613         0.000000000 1
    17.481855392         1.441879153         0.000000000 1
    17.481855392         4.325637341         0.000000000 1
    17.481855392         7.209395885         0.000000000 1
     2.497407913         1.441879153         0.000000000 1
     2.497407913         4.325637341         0.000000000 1
     2.497407913         7.209395885         0.000000000 1
     4.994815826         0.000000000         0.000000000 1
     4.994815826         2.883758307         0.000000000 1
     4.994815826         5.767516613         0.000000000 1
     7.492223740         1.441879153         0.000000000 1
     7.492223740         4.325637341         0.000000000 1
     7.492223740         7.209395885         0.000000000 1
     9.989631653         0.000000000         0.000000000 1
     9.989631653         2.883758307         0.000000000 1
     9.989631653         5.767516613         0.000000000 1
    11.654569626         0.000000000         2.354578733 1
    11.654569626         2.883758307         2.354578733 1
    11.654569626         5.767516613         2.354578733 1
    14.151977539         1.441879153         2.354578733 1
    14.151977539         4.325637341         2.354578733 1
    14.151977539         7.209395885         2.354578733 1
    16.649385452         0.000000000         2.354578733 1
    16.649385452         2.883758307         2.354578733 1
    16.649385452         5.767516613         2.354578733 1
     1.664938688         0.000000000         2.354578733 1
     1.664938688         2.883758307         2.354578733 1
     1.664938688         5.767516613         2.354578733 1
    19.146793365         1.441879153         2.354578733 1
    19.146793365         4.325637341         2.354578733 1
    19.146793365         7.209395885         2.354578733 1
     4.162346363         1.441879153         2.354578733 1
     4.162346363         4.325637341         2.354578733 1
     4.162346363         7.209395885         2.354578733 1
     6.659754753         0.000000000         2.354578733 1
     6.659754753         2.883758307         2.354578733 1
     6.659754753         5.767516613         2.354578733 1
     9.157161713         1.441879153         2.354578733 1
     9.157161713         4.325637341         2.354578733 1
     9.157161713         7.209395885         2.354578733 1
     0.832469344         1.441879153         4.709157467 1
     0.832469344         4.325637341         4.709157467 1
     0.832469344         7.209395885         4.709157467 1
    10.822101593         1.441879153         4.709157467 1
    10.822101593         4.325637341         4.709157467 1
    10.822101593         7.209395885         4.709157467 1
    13.319509506         0.000000000         4.709157467 1
    13.319509506         2.883758307         4.709157467 1
    13.319509506         5.767516613         4.709157467 1
    15.816917419         1.441879153         4.709157467 1
    15.816917419         4.325637341         4.709157467 1
    15.816917419         7.209395885         4.709157467 1
    18.314325333         0.000000000         4.709157467 1
    18.314325333         2.883758307         4.709157467 1
    18.314325333         5.767516613         4.709157467 1
     3.329877377         0.000000000         4.709157467 1
     3.329877377         2.883758307         4.709157467 1
     3.329877377         5.767516613         4.709157467 1
     5.827284813         1.441879153         4.709157467 1
     5.827284813         4.325637341         4.709157467 1
     5.827284813         7.209395885         4.709157467 1
     8.324693680         0.000000000         4.709157467 1
     8.324693680         2.883758307         4.709157467 1
     8.324693680         5.767516613         4.709157467 1
%endblock AtomicCoordinatesAndAtomicSpecies

# UNIT CELL
LatticeConstant       1.0 Ang 
%block LatticeVectors
       19.9792633057         0.0000000000         0.0000000000
        0.0000000000         8.6512746811         0.0000000000
        0.0000000000         0.0000000000         7.0637359619
%endblock LatticeVectors


# K-points

%block kgrid_Monkhorst_Pack
1   0   0   0.0
0   1   0   0.0
0   0   50  0.0
%endblock kgrid_Monkhorst_Pack


# Chemical species

NumberOfSpecies 1
%block ChemicalSpeciesLabel
  1  79 Au 
%endblock ChemicalSpeciesLabel

# Basis set variables
PAO.BasisType split
PAO.BasisSize DZP

# General variables

#NeglNonOverlapInt   True
ElectronicTemperature  300 K
SolutionMethod    diagon 
MeshCutoff           500. Ry
xc.functional         GGA           # Exchange-correlation functional
xc.authors            PBE 
SpinPolarized false 
          # Exchange-correlation version

# SCF variables

DM.MixSCF1   T
MaxSCFIterations      100           # Maximum number of SCF iter
DM.MixH               T    
DM.MixingWeight       0.03          # New DM amount for next SCF cycle
DM.Tolerance          1.d-4         # Tolerance in maximum difference
DM.UseSaveDM          true          # to use continuation files
DM.NumberPulay         6

# MD variables

MD.FinalTimeStep 1
MD.TypeOfRun CG 
MD.NumCGsteps     000
MD.UseSaveXV     .true.

# Output variables

WriteMullikenPop                1
WriteBands                      .false.
SaveRho                         .false.
SaveDeltaRho                    .false.
SaveHS                          .false.
SaveElectrostaticPotential      True
SaveTotalPotential              no
WriteCoorXmol                   .true.
WriteMDXmol                     .true.
WriteMDhistory                  .false.
WriteEigenvalues                yes


