72
generated by VMD
Au 0.000000 0.000000 0.000000
Au 0.000000 2.883758 0.000000
Au 0.000000 5.767517 0.000000
Au 12.487040 1.441879 0.000000
Au 12.487040 4.325637 0.000000
Au 12.487040 7.209396 0.000000
Au 14.984447 0.000000 0.000000
Au 14.984447 2.883758 0.000000
Au 14.984447 5.767517 0.000000
Au 17.481855 1.441879 0.000000
Au 17.481855 4.325637 0.000000
Au 17.481855 7.209396 0.000000
Au 2.497408 1.441879 0.000000
Au 2.497408 4.325637 0.000000
Au 2.497408 7.209396 0.000000
Au 4.994816 0.000000 0.000000
Au 4.994816 2.883758 0.000000
Au 4.994816 5.767517 0.000000
Au 7.492224 1.441879 0.000000
Au 7.492224 4.325637 0.000000
Au 7.492224 7.209396 0.000000
Au 9.989632 0.000000 0.000000
Au 9.989632 2.883758 0.000000
Au 9.989632 5.767517 0.000000
Au 11.654570 0.000000 2.354579
Au 11.654570 2.883758 2.354579
Au 11.654570 5.767517 2.354579
Au 14.151978 1.441879 2.354579
Au 14.151978 4.325637 2.354579
Au 14.151978 7.209396 2.354579
Au 16.649385 0.000000 2.354579
Au 16.649385 2.883758 2.354579
Au 16.649385 5.767517 2.354579
Au 1.664939 0.000000 2.354579
Au 1.664939 2.883758 2.354579
Au 1.664939 5.767517 2.354579
Au 19.146793 1.441879 2.354579
Au 19.146793 4.325637 2.354579
Au 19.146793 7.209396 2.354579
Au 4.162346 1.441879 2.354579
Au 4.162346 4.325637 2.354579
Au 4.162346 7.209396 2.354579
Au 6.659755 0.000000 2.354579
Au 6.659755 2.883758 2.354579
Au 6.659755 5.767517 2.354579
Au 9.157162 1.441879 2.354579
Au 9.157162 4.325637 2.354579
Au 9.157162 7.209396 2.354579
Au 0.832469 1.441879 4.709157
Au 0.832469 4.325637 4.709157
Au 0.832469 7.209396 4.709157
Au 10.822102 1.441879 4.709157
Au 10.822102 4.325637 4.709157
Au 10.822102 7.209396 4.709157
Au 13.319510 0.000000 4.709157
Au 13.319510 2.883758 4.709157
Au 13.319510 5.767517 4.709157
Au 15.816917 1.441879 4.709157
Au 15.816917 4.325637 4.709157
Au 15.816917 7.209396 4.709157
Au 18.314325 0.000000 4.709157
Au 18.314325 2.883758 4.709157
Au 18.314325 5.767517 4.709157
Au 3.329877 0.000000 4.709157
Au 3.329877 2.883758 4.709157
Au 3.329877 5.767517 4.709157
Au 5.827285 1.441879 4.709157
Au 5.827285 4.325637 4.709157
Au 5.827285 7.209396 4.709157
Au 8.324694 0.000000 4.709157
Au 8.324694 2.883758 4.709157
Au 8.324694 5.767517 4.709157
