112
generated by VMD
Au 0.000000 0.000000 0.000000
Au 2.883720 0.000000 0.000000
Au 5.767440 0.000000 0.000000
Au 0.000000 2.883720 0.000000
Au 2.883720 2.883720 0.000000
Au 5.767440 2.883720 0.000000
Au 0.000000 5.767440 0.000000
Au 2.883720 5.767440 0.000000
Au 5.767440 5.767440 0.000000
Au 1.441860 1.441860 2.039100
Au 4.325580 1.441860 2.039100
Au 7.209300 1.441860 2.039100
Au 1.441860 4.325580 2.039100
Au 4.325580 4.325580 2.039100
Au 7.209300 4.325580 2.039100
Au 1.441860 7.209300 2.039100
Au 4.325580 7.209300 2.039100
Au 7.209300 7.209300 2.039100
Au 0.000000 0.000000 4.078200
Au 2.883720 0.000000 4.078200
Au 5.767440 0.000000 4.078200
Au 0.000000 2.883720 4.078200
Au 2.883720 2.883720 4.078200
Au 5.767440 2.883720 4.078200
Au 0.000000 5.767440 4.078200
Au 2.883720 5.767440 4.078200
Au 5.767440 5.767440 4.078200
Au 1.441860 1.441860 6.117300
Au 4.325580 1.441860 6.117300
Au 7.209300 1.441860 6.117300
Au 1.441860 4.325580 6.117300
Au 4.325580 4.325580 6.117300
Au 7.209300 4.325580 6.117300
Au 1.441860 7.209300 6.117300
Au 4.325580 7.209300 6.117300
Au 7.209300 7.209300 6.117300
Au 0.000000 0.000000 8.156400
Au 2.883720 0.000000 8.156400
Au 5.767440 0.000000 8.156400
Au 0.000000 2.883720 8.156400
Au 2.883720 2.883720 8.156400
Au 5.767440 2.883720 8.156400
Au 0.000000 5.767440 8.156400
Au 2.883720 5.767440 8.156400
Au 5.767440 5.767440 8.156400
Au 1.441860 1.441860 10.195500
Au 4.325580 1.441860 10.195500
Au 7.209300 1.441860 10.195500
Au 1.441860 4.325580 10.195500
Au 4.325580 4.325580 10.195500
Au 7.209300 4.325580 10.195500
Au 1.441860 7.209300 10.195500
Au 4.325580 7.209300 10.195500
Au 7.209300 7.209300 10.195500
Au 0.000000 0.000000 12.234600
Au 1.441860 1.441860 14.273700
Au 0.000000 0.000000 16.312800
Au 1.441860 1.441860 18.351900
Au 0.000000 0.000000 20.391000
Au 2.883720 0.000000 20.391000
Au 5.767440 0.000000 20.391000
Au 0.000000 2.883720 20.391000
Au 2.883720 2.883720 20.391000
Au 5.767440 2.883720 20.391000
Au 0.000000 5.767440 20.391000
Au 2.883720 5.767440 20.391000
Au 5.767440 5.767440 20.391000
Au 1.441860 1.441860 22.430100
Au 4.325580 1.441860 22.430100
Au 7.209300 1.441860 22.430100
Au 1.441860 4.325580 22.430100
Au 4.325580 4.325580 22.430100
Au 7.209300 4.325580 22.430100
Au 1.441860 7.209300 22.430100
Au 4.325580 7.209300 22.430100
Au 7.209300 7.209300 22.430100
Au 0.000000 0.000000 24.469200
Au 2.883720 0.000000 24.469200
Au 5.767440 0.000000 24.469200
Au 0.000000 2.883720 24.469200
Au 2.883720 2.883720 24.469200
Au 5.767440 2.883720 24.469200
Au 0.000000 5.767440 24.469200
Au 2.883720 5.767440 24.469200
Au 5.767440 5.767440 24.469200
Au 1.441860 1.441860 26.508300
Au 4.325580 1.441860 26.508300
Au 7.209300 1.441860 26.508300
Au 1.441860 4.325580 26.508300
Au 4.325580 4.325580 26.508300
Au 7.209300 4.325580 26.508300
Au 1.441860 7.209300 26.508300
Au 4.325580 7.209300 26.508300
Au 7.209300 7.209300 26.508300
Au 0.000000 0.000000 28.547400
Au 2.883720 0.000000 28.547400
Au 5.767440 0.000000 28.547400
Au 0.000000 2.883720 28.547400
Au 2.883720 2.883720 28.547400
Au 5.767440 2.883720 28.547400
Au 0.000000 5.767440 28.547400
Au 2.883720 5.767440 28.547400
Au 5.767440 5.767440 28.547400
Au 1.441860 1.441860 30.586500
Au 4.325580 1.441860 30.586500
Au 7.209300 1.441860 30.586500
Au 1.441860 4.325580 30.586500
Au 4.325580 4.325580 30.586500
Au 7.209300 4.325580 30.586500
Au 1.441860 7.209300 30.586500
Au 4.325580 7.209300 30.586500
Au 7.209300 7.209300 30.586500
