36
generated by VMD
Au 0.000000 0.000000 0.000000
Au 2.883720 0.000000 0.000000
Au 5.767440 0.000000 0.000000
Au 0.000000 2.883720 0.000000
Au 2.883720 2.883720 0.000000
Au 5.767440 2.883720 0.000000
Au 0.000000 5.767440 0.000000
Au 2.883720 5.767440 0.000000
Au 5.767440 5.767440 0.000000
Au 1.441860 1.441860 2.039100
Au 4.325580 1.441860 2.039100
Au 7.209300 1.441860 2.039100
Au 1.441860 4.325580 2.039100
Au 4.325580 4.325580 2.039100
Au 7.209300 4.325580 2.039100
Au 1.441860 7.209300 2.039100
Au 4.325580 7.209300 2.039100
Au 7.209300 7.209300 2.039100
Au 0.000000 0.000000 4.078200
Au 2.883720 0.000000 4.078200
Au 5.767440 0.000000 4.078200
Au 0.000000 2.883720 4.078200
Au 2.883720 2.883720 4.078200
Au 5.767440 2.883720 4.078200
Au 0.000000 5.767440 4.078200
Au 2.883720 5.767440 4.078200
Au 5.767440 5.767440 4.078200
Au 1.441860 1.441860 6.117300
Au 4.325580 1.441860 6.117300
Au 7.209300 1.441860 6.117300
Au 1.441860 4.325580 6.117300
Au 4.325580 4.325580 6.117300
Au 7.209300 4.325580 6.117300
Au 1.441860 7.209300 6.117300
Au 4.325580 7.209300 6.117300
Au 7.209300 7.209300 6.117300
