255
 generated by VMD
 Au        0.000000        0.000000        0.000000
 Au        0.000000        2.883758        0.000000
 Au        0.000000        5.767517        0.000000
 Au       12.487040        1.441879        0.000000
 Au       12.487040        4.325637        0.000000
 Au       12.487040        7.209396        0.000000
 Au       14.984447        0.000000        0.000000
 Au       14.984447        2.883758        0.000000
 Au       14.984447        5.767517        0.000000
 Au       17.481855        1.441879        0.000000
 Au       17.481855        4.325637        0.000000
 Au       17.481855        7.209396        0.000000
 Au        2.497408        1.441879        0.000000
 Au        2.497408        4.325637        0.000000
 Au        2.497408        7.209396        0.000000
 Au        4.994816        0.000000        0.000000
 Au        4.994816        2.883758        0.000000
 Au        4.994816        5.767517        0.000000
 Au        7.492224        1.441879        0.000000
 Au        7.492224        4.325637        0.000000
 Au        7.492224        7.209396        0.000000
 Au        9.989632        0.000000        0.000000
 Au        9.989632        2.883758        0.000000
 Au        9.989632        5.767517        0.000000
 Au       11.654570        0.000000        2.354579
 Au       11.654570        2.883758        2.354579
 Au       11.654570        5.767517        2.354579
 Au       14.151978        1.441879        2.354579
 Au       14.151978        4.325637        2.354579
 Au       14.151978        7.209396        2.354579
 Au       16.649385        0.000000        2.354579
 Au       16.649385        2.883758        2.354579
 Au       16.649385        5.767517        2.354579
 Au        1.664939        0.000000        2.354579
 Au        1.664939        2.883758        2.354579
 Au        1.664939        5.767517        2.354579
 Au       19.146793        1.441879        2.354579
 Au       19.146793        4.325637        2.354579
 Au       19.146793        7.209396        2.354579
 Au        4.162346        1.441879        2.354579
 Au        4.162346        4.325637        2.354579
 Au        4.162346        7.209396        2.354579
 Au        6.659755        0.000000        2.354579
 Au        6.659755        2.883758        2.354579
 Au        6.659755        5.767517        2.354579
 Au        9.157162        1.441879        2.354579
 Au        9.157162        4.325637        2.354579
 Au        9.157162        7.209396        2.354579
 Au        0.832469        1.441879        4.709157
 Au        0.832469        4.325637        4.709157
 Au        0.832469        7.209396        4.709157
 Au       10.822102        1.441879        4.709157
 Au       10.822102        4.325637        4.709157
 Au       10.822102        7.209396        4.709157
 Au       13.319510        0.000000        4.709157
 Au       13.319510        2.883758        4.709157
 Au       13.319510        5.767517        4.709157
 Au       15.816917        1.441879        4.709157
 Au       15.816917        4.325637        4.709157
 Au       15.816917        7.209396        4.709157
 Au       18.314325        0.000000        4.709157
 Au       18.314325        2.883758        4.709157
 Au       18.314325        5.767517        4.709157
 Au        3.329877        0.000000        4.709157
 Au        3.329877        2.883758        4.709157
 Au        3.329877        5.767517        4.709157
 Au        5.827285        1.441879        4.709157
 Au        5.827285        4.325637        4.709157
 Au        5.827285        7.209396        4.709157
 Au        8.324694        0.000000        4.709157
 Au        8.324694        2.883758        4.709157
 Au        8.324694        5.767517        4.709157
 Au        0.000000        0.000000        7.063736
 Au        0.000000        2.883758        7.063736
 Au        0.000000        5.767517        7.063736
 Au       12.487040        1.441879        7.063736
 Au       12.487040        4.325637        7.063736
 Au       12.487040        7.209396        7.063736
 Au       14.984447        0.000000        7.063736
 Au       14.984447        2.883758        7.063736
 Au       14.984447        5.767517        7.063736
 Au       17.481855        1.441879        7.063736
 Au       17.481855        4.325637        7.063736
 Au       17.481855        7.209396        7.063736
 Au        2.497408        1.441879        7.063736
 Au        2.497408        4.325637        7.063736
 Au        2.497408        7.209396        7.063736
 Au        4.994816        0.000000        7.063736
 Au        4.994816        2.883758        7.063736
 Au        4.994816        5.767517        7.063736
 Au        7.492224        1.441879        7.063736
 Au        7.492224        4.325637        7.063736
 Au        7.492224        7.209396        7.063736
 Au        9.989632        0.000000        7.063736
 Au        9.989632        2.883758        7.063736
 Au        9.989632        5.767517        7.063736
 Au       11.654570        0.000000        9.418315
 Au       11.654570        2.883758        9.418315
 Au       11.654570        5.767517        9.418315
 Au       14.151978        1.441879        9.418315
 Au       14.151978        4.325637        9.418315
 Au       14.151978        7.209396        9.418315
 Au       16.649385        0.000000        9.418315
 Au       16.649385        2.883758        9.418315
 Au       16.649385        5.767517        9.418315
 Au        1.664939        0.000000        9.418315
 Au        1.664939        2.883758        9.418315
 Au        1.664939        5.767517        9.418315
 Au       19.146793        1.441879        9.418315
 Au       19.146793        4.325637        9.418315
 Au       19.146793        7.209396        9.418315
 Au        4.162346        1.441879        9.418315
 Au        4.162346        4.325637        9.418315
 Au        4.162346        7.209396        9.418315
 Au        6.659755        0.000000        9.418315
 Au        6.659755        2.883758        9.418315
 Au        6.659755        5.767517        9.418315
 Au        9.157162        1.441879        9.418315
 Au        9.157162        4.325637        9.418315
 Au        9.157162        7.209396        9.418315
 Au        0.832469        1.441879       11.772894
 Au        0.832469        4.325637       11.772894
 Au        0.832469        7.209396       11.772894
 Au        3.329877        0.000000       11.772894
 Au        3.329877        2.883758       11.772894
 Au        3.329877        5.767517       11.772894
 Au        5.827285        1.441879       11.772894
 Au        5.827285        4.325637       11.772894
 Au        5.827285        7.209396       11.772894
 Au        8.324694        0.000000       11.772894
 Au        8.324694        2.883758       11.772894
 Au        8.324694        5.767517       11.772894
 H        14.477000        3.412300       13.772700
 H         2.234310        3.403530       13.772700
 C         8.355210        3.398390       14.511100
 C        14.663600        3.402080       14.857400
 C         2.047570        3.402040       14.857400
 H        15.260900        2.507980       15.086500
 H         1.446430        2.512240       15.092900
 H         1.446500        4.291200       15.095500
 H        15.268600        4.286860       15.101900
 C        13.361700        3.400850       15.647300
 C         3.349470        3.401030       15.647400
 H        13.193100        1.238170       15.710300
 H         3.513810        1.238220       15.717700
 N         8.355600        3.400300       15.722100
 H         3.501480        5.563660       15.744300
 H        13.214000        5.563460       15.751500
 C        12.723400        2.186960       15.988900
 C         3.985370        2.187020       15.993100
 C         3.978390        4.614260       16.008101
 C        12.735300        4.614110       16.012400
 H         9.845200        0.753180       16.526501
 H         6.864270        0.752640       16.543600
 H         6.852250        6.055000       16.581900
 H         9.860700        6.055200       16.599600
 C        11.498300        2.164530       16.691299
 H        11.449200        0.000000       16.694099
 C         5.210520        2.164570       16.695400
 H         5.258800        0.000050       16.698999
 C         5.203490        4.635050       16.710699
 C        11.510100        4.634930       16.714701
 H         5.242720        6.799600       16.734301
 H        11.471600        6.799500       16.739000
 C        10.822300        0.839380       17.026300
 C         5.883370        0.839230       17.035900
 C        10.895900        3.399290       17.056801
 C         5.815350        3.399380       17.056801
 C         5.868740        5.960000       17.067301
 C        10.848000        5.960000       17.077000
 C         8.355600        3.399020       17.133200
 C         7.109520        3.398470       17.812500
 C         9.601700        3.398470       17.812500
 H        10.651100        0.733900       18.107800
 H         6.046350        0.733720       18.118601
 H         6.024880        6.056500       18.151899
 H        10.700700        6.056600       18.162800
 C         7.132740        3.396980       19.228100
 C         9.578500        3.396990       19.228100
 H        10.527700        3.396120       19.768400
 H         6.183460        3.396210       19.768400
 C         8.355610        3.396180       19.932400
 H         8.355610        3.394790       21.023600
 Au        0.832469        1.441879       23.023600
 Au        0.832469        4.325637       23.023600
 Au        0.832469        7.209396       23.023600
 Au       10.822102        1.441879       23.023600
 Au       10.822102        4.325637       23.023600
 Au       10.822102        7.209396       23.023600
 Au       13.319510        0.000000       23.023600
 Au       13.319510        2.883758       23.023600
 Au       13.319510        5.767517       23.023600
 Au       15.816917        1.441879       23.023600
 Au       15.816917        4.325637       23.023600
 Au       15.816917        7.209396       23.023600
 Au       18.314325        0.000000       23.023600
 Au       18.314325        2.883758       23.023600
 Au       18.314325        5.767517       23.023600
 Au        3.329877        0.000000       23.023600
 Au        3.329877        2.883758       23.023600
 Au        3.329877        5.767517       23.023600
 Au        5.827285        1.441879       23.023600
 Au        5.827285        4.325637       23.023600
 Au        5.827285        7.209396       23.023600
 Au        8.324694        0.000000       23.023600
 Au        8.324694        2.883758       23.023600
 Au        8.324694        5.767517       23.023600
 Au       11.654570        0.000000       25.378201
 Au       11.654570        2.883758       25.378201
 Au       11.654570        5.767517       25.378201
 Au       14.151978        1.441879       25.378201
 Au       14.151978        4.325637       25.378201
 Au       14.151978        7.209396       25.378201
 Au       16.649385        0.000000       25.378201
 Au       16.649385        2.883758       25.378201
 Au       16.649385        5.767517       25.378201
 Au        1.664939        0.000000       25.378201
 Au        1.664939        2.883758       25.378201
 Au        1.664939        5.767517       25.378201
 Au       19.146793        1.441879       25.378201
 Au       19.146793        4.325637       25.378201
 Au       19.146793        7.209396       25.378201
 Au        4.162346        1.441879       25.378201
 Au        4.162346        4.325637       25.378201
 Au        4.162346        7.209396       25.378201
 Au        6.659755        0.000000       25.378201
 Au        6.659755        2.883758       25.378201
 Au        6.659755        5.767517       25.378201
 Au        9.157162        1.441879       25.378201
 Au        9.157162        4.325637       25.378201
 Au        9.157162        7.209396       25.378201
 Au        0.000000        0.000000       27.732800
 Au        0.000000        2.883758       27.732800
 Au        0.000000        5.767517       27.732800
 Au       12.487040        1.441879       27.732800
 Au       12.487040        4.325637       27.732800
 Au       12.487040        7.209396       27.732800
 Au       14.984447        0.000000       27.732800
 Au       14.984447        2.883758       27.732800
 Au       14.984447        5.767517       27.732800
 Au       17.481855        1.441879       27.732800
 Au       17.481855        4.325637       27.732800
 Au       17.481855        7.209396       27.732800
 Au        2.497408        1.441879       27.732800
 Au        2.497408        4.325637       27.732800
 Au        2.497408        7.209396       27.732800
 Au        4.994816        0.000000       27.732800
 Au        4.994816        2.883758       27.732800
 Au        4.994816        5.767517       27.732800
 Au        7.492224        1.441879       27.732800
 Au        7.492224        4.325637       27.732800
 Au        7.492224        7.209396       27.732800
 Au        9.989632        0.000000       27.732800
 Au        9.989632        2.883758       27.732800
 Au        9.989632        5.767517       27.732800
