72
 generated by VMD
 Au       19.979265        8.651274       30.087297
 Au       19.979265        5.767515       30.087297
 Au       19.979265        2.883757       30.087297
 Au        7.492224        7.209394       30.087297
 Au        7.492224        4.325636       30.087297
 Au        7.492224        1.441877       30.087297
 Au        4.994816        8.651274       30.087297
 Au        4.994816        5.767515       30.087297
 Au        4.994816        2.883757       30.087297
 Au        2.497408        7.209394       30.087297
 Au        2.497408        4.325636       30.087297
 Au        2.497408        1.441877       30.087297
 Au       17.481855        7.209394       30.087297
 Au       17.481855        4.325636       30.087297
 Au       17.481855        1.441877       30.087297
 Au       14.984446        8.651274       30.087297
 Au       14.984446        5.767515       30.087297
 Au       14.984446        2.883757       30.087297
 Au       12.487040        7.209394       30.087297
 Au       12.487040        4.325636       30.087297
 Au       12.487040        1.441877       30.087297
 Au        9.989634        8.651274       30.087297
 Au        9.989634        5.767515       30.087297
 Au        9.989634        2.883757       30.087297
 Au        8.324694        8.651274       32.441898
 Au        8.324694        5.767515       32.441898
 Au        8.324694        2.883757       32.441898
 Au        5.827286        7.209394       32.441898
 Au        5.827286        4.325636       32.441898
 Au        5.827286        1.441877       32.441898
 Au        3.329878        8.651274       32.441898
 Au        3.329878        5.767515       32.441898
 Au        3.329878        2.883757       32.441898
 Au       18.314325        8.651274       32.441898
 Au       18.314325        5.767515       32.441898
 Au       18.314325        2.883757       32.441898
 Au        0.832472        7.209394       32.441898
 Au        0.832472        4.325636       32.441898
 Au        0.832472        1.441877       32.441898
 Au       15.816919        7.209394       32.441898
 Au       15.816919        4.325636       32.441898
 Au       15.816919        1.441877       32.441898
 Au       13.319510        8.651274       32.441898
 Au       13.319510        5.767515       32.441898
 Au       13.319510        2.883757       32.441898
 Au       10.822100        7.209394       32.441898
 Au       10.822100        4.325636       32.441898
 Au       10.822100        1.441877       32.441898
 Au       19.146795        7.209394       34.796501
 Au       19.146795        4.325636       34.796501
 Au       19.146795        1.441877       34.796501
 Au        9.157162        7.209394       34.796501
 Au        9.157162        4.325636       34.796501
 Au        9.157162        1.441877       34.796501
 Au        6.659754        8.651274       34.796501
 Au        6.659754        5.767515       34.796501
 Au        6.659754        2.883757       34.796501
 Au        4.162348        7.209394       34.796501
 Au        4.162348        4.325636       34.796501
 Au        4.162348        1.441877       34.796501
 Au        1.664938        8.651274       34.796501
 Au        1.664938        5.767515       34.796501
 Au        1.664938        2.883757       34.796501
 Au       16.649385        8.651274       34.796501
 Au       16.649385        5.767515       34.796501
 Au       16.649385        2.883757       34.796501
 Au       14.151979        7.209394       34.796501
 Au       14.151979        4.325636       34.796501
 Au       14.151979        1.441877       34.796501
 Au       11.654570        8.651274       34.796501
 Au       11.654570        5.767515       34.796501
 Au       11.654570        2.883757       34.796501
