60
 generated by VMD
 Ag        1.444412        0.833934       33.750298
 Ag       12.999725        0.833934       33.750298
 Ag       10.110897        0.833934       33.750298
 Ag        7.222069        0.833934       33.750298
 Ag        4.333240        0.833934       33.750298
 Ag        1.444412        5.837531       33.750298
 Ag       12.999725        5.837531       33.750298
 Ag       10.110897        5.837531       33.750298
 Ag        7.222069        5.837531       33.750298
 Ag        4.333240        5.837531       33.750298
 Ag       14.444139        3.335734       33.750294
 Ag       11.555309        3.335734       33.750294
 Ag        8.666481        3.335734       33.750294
 Ag        5.777653        3.335734       33.750294
 Ag        2.888824        3.335734       33.750294
 Ag       14.444139        8.339331       33.750294
 Ag       11.555309        8.339331       33.750294
 Ag        8.666481        8.339331       33.750294
 Ag        5.777653        8.339331       33.750294
 Ag        2.888824        8.339331       33.750294
 Ag       14.444139        5.003600       36.109009
 Ag       11.555309        5.003600       36.109009
 Ag        8.666481        5.003600       36.109009
 Ag        5.777653        5.003600       36.109009
 Ag        2.888824        5.003600       36.109009
 Ag       14.444139       10.007196       36.109009
 Ag       11.555309       10.007196       36.109009
 Ag        8.666481       10.007196       36.109009
 Ag        5.777653       10.007196       36.109009
 Ag        2.888824       10.007196       36.109009
 Ag        1.444412        2.501800       36.109013
 Ag       12.999725        2.501800       36.109013
 Ag       10.110897        2.501800       36.109013
 Ag        7.222069        2.501800       36.109013
 Ag        4.333240        2.501800       36.109013
 Ag        1.444412        7.505397       36.109013
 Ag       12.999725        7.505397       36.109013
 Ag       10.110897        7.505397       36.109013
 Ag        7.222069        7.505397       36.109013
 Ag        4.333240        7.505397       36.109013
 Ag        1.444412        4.169666       38.467731
 Ag       12.999725        4.169666       38.467731
 Ag       10.110897        4.169666       38.467731
 Ag        7.222069        4.169666       38.467731
 Ag        4.333240        4.169666       38.467731
 Ag        1.444412        9.173263       38.467731
 Ag       12.999725        9.173263       38.467731
 Ag       10.110897        9.173263       38.467731
 Ag        7.222069        9.173263       38.467731
 Ag        4.333240        9.173263       38.467731
 Ag       14.444139        1.667868       38.467728
 Ag       11.555309        1.667868       38.467728
 Ag        8.666481        1.667868       38.467728
 Ag        5.777653        1.667868       38.467728
 Ag        2.888824        1.667868       38.467728
 Ag       14.444139        6.671465       38.467728
 Ag       11.555309        6.671465       38.467728
 Ag        8.666481        6.671465       38.467728
 Ag        5.777653        6.671465       38.467728
 Ag        2.888824        6.671465       38.467728
