
SystemName  AuDMP 
SystemLabel AuDMP


TS.SaveHS   .true.
TS.SaveLead .true.

# ATOMIC POSITIONS
# Atomic coordinates
NumberOfAtoms 327
AtomicCoordinatesFormat Ang
%block AtomicCoordinatesAndAtomicSpecies
0.000000 0.000000 0.000000 1
0.000000 2.883758 0.000000 1
0.000000 5.767517 0.000000 1
12.487040 1.441879 0.000000 1
12.487040 4.325637 0.000000 1
12.487040 7.209396 0.000000 1
14.984447 0.000000 0.000000 1
14.984447 2.883758 0.000000 1
14.984447 5.767517 0.000000 1
17.481855 1.441879 0.000000 1
17.481855 4.325637 0.000000 1
17.481855 7.209396 0.000000 1
2.497408 1.441879 0.000000 1
2.497408 4.325637 0.000000 1
2.497408 7.209396 0.000000 1
4.994816 0.000000 0.000000 1
4.994816 2.883758 0.000000 1
4.994816 5.767517 0.000000 1
7.492224 1.441879 0.000000 1
7.492224 4.325637 0.000000 1
7.492224 7.209396 0.000000 1
9.989632 0.000000 0.000000 1
9.989632 2.883758 0.000000 1
9.989632 5.767517 0.000000 1
11.654570 0.000000 2.354579 1
11.654570 2.883758 2.354579 1
11.654570 5.767517 2.354579 1
14.151978 1.441879 2.354579 1
14.151978 4.325637 2.354579 1
14.151978 7.209396 2.354579 1
16.649385 0.000000 2.354579 1
16.649385 2.883758 2.354579 1
16.649385 5.767517 2.354579 1
1.664939 0.000000 2.354579 1
1.664939 2.883758 2.354579 1
1.664939 5.767517 2.354579 1
19.146793 1.441879 2.354579 1
19.146793 4.325637 2.354579 1
19.146793 7.209396 2.354579 1
4.162346 1.441879 2.354579 1
4.162346 4.325637 2.354579 1
4.162346 7.209396 2.354579 1
6.659755 0.000000 2.354579 1
6.659755 2.883758 2.354579 1
6.659755 5.767517 2.354579 1
9.157162 1.441879 2.354579 1
9.157162 4.325637 2.354579 1
9.157162 7.209396 2.354579 1
0.832469 1.441879 4.709157 1
0.832469 4.325637 4.709157 1
0.832469 7.209396 4.709157 1
10.822102 1.441879 4.709157 1
10.822102 4.325637 4.709157 1
10.822102 7.209396 4.709157 1
13.319510 0.000000 4.709157 1
13.319510 2.883758 4.709157 1
13.319510 5.767517 4.709157 1
15.816917 1.441879 4.709157 1
15.816917 4.325637 4.709157 1
15.816917 7.209396 4.709157 1
18.314325 0.000000 4.709157 1
18.314325 2.883758 4.709157 1
18.314325 5.767517 4.709157 1
3.329877 0.000000 4.709157 1
3.329877 2.883758 4.709157 1
3.329877 5.767517 4.709157 1
5.827285 1.441879 4.709157 1
5.827285 4.325637 4.709157 1
5.827285 7.209396 4.709157 1
8.324694 0.000000 4.709157 1
8.324694 2.883758 4.709157 1
8.324694 5.767517 4.709157 1
0.000000 0.000000 7.063736 1
0.000000 2.883758 7.063736 1
0.000000 5.767517 7.063736 1
12.487040 1.441879 7.063736 1
12.487040 4.325637 7.063736 1
12.487040 7.209396 7.063736 1
14.984447 0.000000 7.063736 1
14.984447 2.883758 7.063736 1
14.984447 5.767517 7.063736 1
17.481855 1.441879 7.063736 1
17.481855 4.325637 7.063736 1
17.481855 7.209396 7.063736 1
2.497408 1.441879 7.063736 1
2.497408 4.325637 7.063736 1
2.497408 7.209396 7.063736 1
4.994816 0.000000 7.063736 1
4.994816 2.883758 7.063736 1
4.994816 5.767517 7.063736 1
7.492224 1.441879 7.063736 1
7.492224 4.325637 7.063736 1
7.492224 7.209396 7.063736 1
9.989632 0.000000 7.063736 1
9.989632 2.883758 7.063736 1
9.989632 5.767517 7.063736 1
11.654570 0.000000 9.418315 1
11.654570 2.883758 9.418315 1
11.654570 5.767517 9.418315 1
14.151978 1.441879 9.418315 1
14.151978 4.325637 9.418315 1
14.151978 7.209396 9.418315 1
16.649385 0.000000 9.418315 1
16.649385 2.883758 9.418315 1
16.649385 5.767517 9.418315 1
1.664939 0.000000 9.418315 1
1.664939 2.883758 9.418315 1
1.664939 5.767517 9.418315 1
19.146793 1.441879 9.418315 1
19.146793 4.325637 9.418315 1
19.146793 7.209396 9.418315 1
4.162346 1.441879 9.418315 1
4.162346 4.325637 9.418315 1
4.162346 7.209396 9.418315 1
6.659755 0.000000 9.418315 1
6.659755 2.883758 9.418315 1
6.659755 5.767517 9.418315 1
9.157162 1.441879 9.418315 1
9.157162 4.325637 9.418315 1
9.157162 7.209396 9.418315 1
0.832469 1.441879 11.772894 1
0.832469 4.325637 11.772894 1
0.832469 7.209396 11.772894 1
3.329877 0.000000 11.772894 1
3.329877 2.883758 11.772894 1
3.329877 5.767517 11.772894 1
5.827285 1.441879 11.772894 1
5.827285 4.325637 11.772894 1
5.827285 7.209396 11.772894 1
8.324694 0.000000 11.772894 1
8.324694 2.883758 11.772894 1
8.324694 5.767517 11.772894 1
14.477000 3.412300 13.772700 2
2.234310 3.403530 13.772700 2
8.355210 3.398390 14.511100 3
14.663600 3.402080 14.857400 3
2.047570 3.402040 14.857400 3
15.260900 2.507980 15.086500 2
1.446430 2.512240 15.092900 2
1.446500 4.291200 15.095500 2
15.268600 4.286860 15.101900 2
13.361700 3.400850 15.647300 3
3.349470 3.401030 15.647400 3
13.193100 1.238170 15.710300 2
3.513810 1.238220 15.717700 2
8.355600 3.400300 15.722100 4
3.501480 5.563660 15.744300 2
13.214000 5.563460 15.751500 2
12.723400 2.186960 15.988900 3
3.985370 2.187020 15.993100 3
3.978390 4.614260 16.008101 3
12.735300 4.614110 16.012400 3
9.845200 0.753180 16.526501 2
6.864270 0.752640 16.543600 2
6.852250 6.055000 16.581900 2
9.860700 6.055200 16.599600 2
11.498300 2.164530 16.691299 3
11.449200 0.000000 16.694099 2
5.210520 2.164570 16.695400 3
5.258800 0.000050 16.698999 2
5.203490 4.635050 16.710699 3
11.510100 4.634930 16.714701 3
5.242720 6.799600 16.734301 2
11.471600 6.799500 16.739000 2
10.822300 0.839380 17.026300 3
5.883370 0.839230 17.035900 3
10.895900 3.399290 17.056801 3
5.815350 3.399380 17.056801 3
5.868740 5.960000 17.067301 3
10.848000 5.960000 17.077000 3
8.355600 3.399020 17.133200 3
7.109520 3.398470 17.812500 3
9.601700 3.398470 17.812500 3
10.651100 0.733900 18.107800 2
6.046350 0.733720 18.118601 2
6.024880 6.056500 18.151899 2
10.700700 6.056600 18.162800 2
7.132740 3.396980 19.228100 3
9.578500 3.396990 19.228100 3
10.527700 3.396120 19.768400 2
6.183460 3.396210 19.768400 2
8.355610 3.396180 19.932400 3
8.355610 3.394790 21.023600 2
0.832469 1.441879 23.023600 1
0.832469 4.325637 23.023600 1
0.832469 7.209396 23.023600 1
10.822102 1.441879 23.023600 1
10.822102 4.325637 23.023600 1
10.822102 7.209396 23.023600 1
13.319510 0.000000 23.023600 1
13.319510 2.883758 23.023600 1
13.319510 5.767517 23.023600 1
15.816917 1.441879 23.023600 1
15.816917 4.325637 23.023600 1
15.816917 7.209396 23.023600 1
18.314325 0.000000 23.023600 1
18.314325 2.883758 23.023600 1
18.314325 5.767517 23.023600 1
3.329877 0.000000 23.023600 1
3.329877 2.883758 23.023600 1
3.329877 5.767517 23.023600 1
5.827285 1.441879 23.023600 1
5.827285 4.325637 23.023600 1
5.827285 7.209396 23.023600 1
8.324694 0.000000 23.023600 1
8.324694 2.883758 23.023600 1
8.324694 5.767517 23.023600 1
11.654570 0.000000 25.378201 1
11.654570 2.883758 25.378201 1
11.654570 5.767517 25.378201 1
14.151978 1.441879 25.378201 1
14.151978 4.325637 25.378201 1
14.151978 7.209396 25.378201 1
16.649385 0.000000 25.378201 1
16.649385 2.883758 25.378201 1
16.649385 5.767517 25.378201 1
1.664939 0.000000 25.378201 1
1.664939 2.883758 25.378201 1
1.664939 5.767517 25.378201 1
19.146793 1.441879 25.378201 1
19.146793 4.325637 25.378201 1
19.146793 7.209396 25.378201 1
4.162346 1.441879 25.378201 1
4.162346 4.325637 25.378201 1
4.162346 7.209396 25.378201 1
6.659755 0.000000 25.378201 1
6.659755 2.883758 25.378201 1
6.659755 5.767517 25.378201 1
9.157162 1.441879 25.378201 1
9.157162 4.325637 25.378201 1
9.157162 7.209396 25.378201 1
0.000000 0.000000 27.732800 1
0.000000 2.883758 27.732800 1
0.000000 5.767517 27.732800 1
12.487040 1.441879 27.732800 1
12.487040 4.325637 27.732800 1
12.487040 7.209396 27.732800 1
14.984447 0.000000 27.732800 1
14.984447 2.883758 27.732800 1
14.984447 5.767517 27.732800 1
17.481855 1.441879 27.732800 1
17.481855 4.325637 27.732800 1
17.481855 7.209396 27.732800 1
2.497408 1.441879 27.732800 1
2.497408 4.325637 27.732800 1
2.497408 7.209396 27.732800 1
4.994816 0.000000 27.732800 1
4.994816 2.883758 27.732800 1
4.994816 5.767517 27.732800 1
7.492224 1.441879 27.732800 1
7.492224 4.325637 27.732800 1
7.492224 7.209396 27.732800 1
9.989632 0.000000 27.732800 1
9.989632 2.883758 27.732800 1
9.989632 5.767517 27.732800 1
19.146793 0.000000 34.709160 1
19.146793 2.883758 34.709160 1
19.146793 5.767517 34.709160 1
6.659753 1.441879 34.709160 1
6.659753 4.325637 34.709160 1
6.659753 7.209396 34.709160 1
4.162347 0.000000 34.709160 1
4.162347 2.883758 34.709160 1
4.162347 5.767517 34.709160 1
1.664937 1.441879 34.709160 1
1.664937 4.325637 34.709160 1
1.664937 7.209396 34.709160 1
16.649384 1.441879 34.709160 1
16.649384 4.325637 34.709160 1
16.649384 7.209396 34.709160 1
14.151975 0.000000 34.709160 1
14.151975 2.883758 34.709160 1
14.151975 5.767517 34.709160 1
11.654569 1.441879 34.709160 1
11.654569 4.325637 34.709160 1
11.654569 7.209396 34.709160 1
9.157161 0.000000 34.709160 1
9.157161 2.883758 34.709160 1
9.157161 5.767517 34.709160 1
7.492223 0.000000 32.354580 1
7.492223 2.883758 32.354580 1
7.492223 5.767517 32.354580 1
4.994815 1.441879 32.354580 1
4.994815 4.325637 32.354580 1
4.994815 7.209396 32.354580 1
2.497407 0.000000 32.354580 1
2.497407 2.883758 32.354580 1
2.497407 5.767517 32.354580 1
17.481853 0.000000 32.354580 1
17.481853 2.883758 32.354580 1
17.481853 5.767517 32.354580 1
-0.000001 1.441879 32.354580 1
-0.000001 4.325637 32.354580 1
-0.000001 7.209396 32.354580 1
14.984448 1.441879 32.354580 1
14.984448 4.325637 32.354580 1
14.984448 7.209396 32.354580 1
12.487039 0.000000 32.354580 1
12.487039 2.883758 32.354580 1
12.487039 5.767517 32.354580 1
9.989629 1.441879 32.354580 1
9.989629 4.325637 32.354580 1
9.989629 7.209396 32.354580 1
18.314323 1.441879 30.000004 1
18.314323 4.325637 30.000004 1
18.314323 7.209396 30.000004 1
8.324691 1.441879 30.000004 1
8.324691 4.325637 30.000004 1
8.324691 7.209396 30.000004 1
5.827283 0.000000 30.000004 1
5.827283 2.883758 30.000004 1
5.827283 5.767517 30.000004 1
3.329875 1.441879 30.000004 1
3.329875 4.325637 30.000004 1
3.329875 7.209396 30.000004 1
0.832467 0.000000 30.000004 1
0.832467 2.883758 30.000004 1
0.832467 5.767517 30.000004 1
15.816915 0.000000 30.000004 1
15.816915 2.883758 30.000004 1
15.816915 5.767517 30.000004 1
13.319509 1.441879 30.000004 1
13.319509 4.325637 30.000004 1
13.319509 7.209396 30.000004 1
10.822099 0.000000 30.000004 1
10.822099 2.883758 30.000004 1
10.822099 5.767517 30.000004 1
%endblock AtomicCoordinatesAndAtomicSpecies

# UNIT CELL
LatticeConstant       1.0 Ang 
%block LatticeVectors
       19.9792633057         0.0000000000         0.0000000000
        0.0000000000         8.6512746811         0.0000000000
        0.0000000000         0.0000000000        37.1511000000 
%endblock LatticeVectors

#Zaxis is the top gold top bound So position of top layer plus distance in repetition

# K-points

%block kgrid_Monkhorst_Pack
1   0   0   0.0
0   1   0   0.0
0   0   01   0.5
%endblock kgrid_Monkhorst_Pack


# Chemical species

NumberOfSpecies 4
%block ChemicalSpeciesLabel
1  79  Au
2   1   H
3   6   C
4   7   N
%endblock ChemicalSpeciesLabel

# Basis set variables
PAO.BasisType split
PAO.BasisSize    DZP

# General variables

#NeglNonOverlapInt   True
ElectronicTemperature  300 K
SolutionMethod transiesta 
MeshCutoff           500. Ry
xc.functional         GGA           # Exchange-correlation functional
xc.authors            PBE 
SpinPolarized false 
          # Exchange-correlation version

# SCF variables

DM.MixSCF1   T
MaxSCFIterations      100           # Maximum number of SCF iter
DM.MixH               T    
DM.MixingWeight       0.03          # New DM amount for next SCF cycle
DM.Tolerance          1.d-4         # Tolerance in maximum difference
DM.UseSaveDM          true          # to use continuation files
DM.NumberPulay         6

# MD variables

MD.FinalTimeStep 1
MD.TypeOfRun CG 
MD.NumCGsteps     000
#%block GeometryConstraints
#position from 1 to 36
#position from 41 to 85
#%endblock GeometryConstraints
MD.UseSaveXV     .true.

# Output variables

WriteMullikenPop                1
WriteBands                      .false.
SaveRho                         .false.
SaveDeltaRho                    .false.
SaveHS                          .true.
SaveElectrostaticPotential      no
SaveTotalPotential              no
WriteCoorXmol                   .true.
WriteMDXmol                     .true.
WriteMDhistory                  .false.
WriteEigenvalues                yes

==================================================
==================================================

TS.Voltage 0 eV

# To highlight the simplest options
# for transiesta we here show the input
# in its reduced form. This may ONLY
# be used for non-bias calculations.
# In the next example we will reuse this
# setup but create the input options for
# a bias calculation.
%block TS.ChemPots
Left
Right
%endblock TS.ChemPots

# Define how the "Left/Right" chemical potential
# should be defined, i.e.
# the energy shift of the chemical potential
# with regards to the device "Fermi" level.
# Also, we define the contours needed to
# integegrate the equilibrium contour for
# this chemical potential.
%block TS.ChemPot.Left
  mu V/2
  contour.eq
    begin
      C-Left
      T-Left
    end
%endblock TS.ChemPot.Left
%block TS.ChemPot.Right
  mu -V/2
  contour.eq
    begin
      C-Right
      T-Right
    end
%endblock TS.ChemPot.Right

# From this energy the number of poles will be calculated
# from the energy and the temperature.
TS.Contours.Eq.Pole 2.5 eV
%block TS.Contour.C-Left
  part circle
   from -40. eV + V/2  to -10 kT + V/2
     points 25
      method g-legendre
      opt right
%endblock TS.Contour.C-Left
%block TS.Contour.T-Left
  part tail
   from prev to inf
     points 10
      method g-fermi
%endblock TS.Contour.T-Left
%block TS.Contour.C-Right
  part circle
   from -40. eV -V/2 to -10 kT -V/2
     points 25
      method g-legendre
       opt right
%endblock TS.Contour.C-Right
%block TS.Contour.T-Right
  part tail
   from prev to inf
     points 10
      method g-fermi
%endblock TS.Contour.T-Right

%block TS.Contours.nEq
  neq-1
%endblock TS.Contours.nEq
%block TS.Contour.nEq.neq-1
  part line
   from -|V|/2 - 5 kT to |V|/2 + 5 kT
     delta 0.01 eV
      method mid-rule
%endblock TS.Contour.nEq.neq-1


%block TS.Elecs
  Left
  Right
%endblock TS.Elecs


%block TS.Elec.Left
  HS Elec-Au.TSHS
  chemical-potential Left
  semi-inf-direction -a3
  electrode-position begin 1
%endblock TS.Elec.Left
%block TS.Elec.Right
  HS Elec-Au.TSHS
  chemical-potential Right
  semi-inf-direction +a3
  electrode-position end -1
%endblock TS.Elec.Right


==================================================
==================================================


#PHTrans

TBT.DOS.A true
