4033
 generated by VMD
Au   54.239552   50.274750   49.868160
Au   54.239552   50.274750   53.936161
Au   54.239552   50.274750   58.004162
Au   54.239552   50.274750   62.072159
Au   54.239552   50.274750   66.140160
Au   54.239552   50.274750   70.208160
Au   54.239552   50.274750   74.276161
Au   54.239552   54.342751   49.868160
Au   54.239552   54.342751   53.936161
Au   54.239552   54.342751   58.004162
Au   54.239552   54.342751   62.072159
Au   54.239552   54.342751   66.140160
Au   54.239552   54.342751   70.208160
Au   54.239552   54.342751   74.276161
Au   54.239552   58.410751   49.868160
Au   54.239552   58.410751   53.936161
Au   54.239552   58.410751   58.004162
Au   54.239552   58.410751   62.072159
Au   54.239552   58.410751   66.140160
Au   54.239552   58.410751   70.208160
Au   54.239552   58.410751   74.276161
Au   54.239552   62.478748   49.868160
Au   54.239552   62.478748   53.936161
Au   54.239552   62.478748   58.004162
Au   54.239552   62.478748   62.072159
Au   54.239552   62.478748   66.140160
Au   54.239552   62.478748   70.208160
Au   54.239552   66.546753   49.868160
Au   54.239552   66.546753   53.936161
Au   54.239552   66.546753   58.004162
Au   54.239552   66.546753   62.072159
Au   54.239552   66.546753   66.140160
Au   54.239552   70.614754   49.868160
Au   54.239552   70.614754   53.936161
Au   54.239552   70.614754   58.004162
Au   54.239552   70.614754   62.072159
Au   54.239552   74.682747   49.868160
Au   54.239552   74.682747   53.936161
Au   54.239552   74.682747   58.004162
Au   58.307549   50.274750   49.868160
Au   58.307549   50.274750   53.936161
Au   58.307549   50.274750   58.004162
Au   58.307549   50.274750   62.072159
Au   58.307549   50.274750   66.140160
Au   58.307549   50.274750   70.208160
Au   58.307549   50.274750   74.276161
Au   58.307549   54.342751   49.868160
Au   58.307549   54.342751   53.936161
Au   58.307549   54.342751   58.004162
Au   58.307549   54.342751   62.072159
Au   58.307549   54.342751   66.140160
Au   58.307549   54.342751   70.208160
Au   58.307549   54.342751   74.276161
Au   58.307549   58.410751   49.868160
Au   58.307549   58.410751   53.936161
Au   58.307549   58.410751   58.004162
Au   58.307549   58.410751   62.072159
Au   58.307549   58.410751   66.140160
Au   58.307549   58.410751   70.208160
Au   58.307549   62.478748   49.868160
Au   58.307549   62.478748   53.936161
Au   58.307549   62.478748   58.004162
Au   58.307549   62.478748   62.072159
Au   58.307549   62.478748   66.140160
Au   58.307549   66.546753   49.868160
Au   58.307549   66.546753   53.936161
Au   58.307549   66.546753   58.004162
Au   58.307549   66.546753   62.072159
Au   58.307549   70.614754   49.868160
Au   58.307549   70.614754   53.936161
Au   58.307549   70.614754   58.004162
Au   58.307549   74.682747   49.868160
Au   58.307549   74.682747   53.936161
Au   62.375549   50.274750   49.868160
Au   62.375549   50.274750   53.936161
Au   62.375549   50.274750   58.004162
Au   62.375549   50.274750   62.072159
Au   62.375549   50.274750   66.140160
Au   62.375549   50.274750   70.208160
Au   62.375549   50.274750   74.276161
Au   62.375549   54.342751   49.868160
Au   62.375549   54.342751   53.936161
Au   62.375549   54.342751   58.004162
Au   62.375549   54.342751   62.072159
Au   62.375549   54.342751   66.140160
Au   62.375549   54.342751   70.208160
Au   62.375549   58.410751   49.868160
Au   62.375549   58.410751   53.936161
Au   62.375549   58.410751   58.004162
Au   62.375549   58.410751   62.072159
Au   62.375549   58.410751   66.140160
Au   62.375549   62.478748   49.868160
Au   62.375549   62.478748   53.936161
Au   62.375549   62.478748   58.004162
Au   62.375549   62.478748   62.072159
Au   62.375549   66.546753   49.868160
Au   62.375549   66.546753   53.936161
Au   62.375549   66.546753   58.004162
Au   62.375549   70.614754   49.868160
Au   62.375549   70.614754   53.936161
Au   62.375549   74.682747   49.868160
Au   66.443550   50.274750   49.868160
Au   66.443550   50.274750   53.936161
Au   66.443550   50.274750   58.004162
Au   66.443550   50.274750   62.072159
Au   66.443550   50.274750   66.140160
Au   66.443550   50.274750   70.208160
Au   66.443550   54.342751   49.868160
Au   66.443550   54.342751   53.936161
Au   66.443550   54.342751   58.004162
Au   66.443550   54.342751   62.072159
Au   66.443550   54.342751   66.140160
Au   66.443550   58.410751   49.868160
Au   66.443550   58.410751   53.936161
Au   66.443550   58.410751   58.004162
Au   66.443550   58.410751   62.072159
Au   66.443550   62.478748   49.868160
Au   66.443550   62.478748   53.936161
Au   66.443550   62.478748   58.004162
Au   66.443550   66.546753   49.868160
Au   66.443550   66.546753   53.936161
Au   66.443550   70.614754   49.868160
Au   70.511551   50.274750   49.868160
Au   70.511551   50.274750   53.936161
Au   70.511551   50.274750   58.004162
Au   70.511551   50.274750   62.072159
Au   70.511551   50.274750   66.140160
Au   70.511551   54.342751   49.868160
Au   70.511551   54.342751   53.936161
Au   70.511551   54.342751   58.004162
Au   70.511551   54.342751   62.072159
Au   70.511551   58.410751   49.868160
Au   70.511551   58.410751   53.936161
Au   70.511551   58.410751   58.004162
Au   70.511551   62.478748   49.868160
Au   70.511551   62.478748   53.936161
Au   70.511551   66.546753   49.868160
Au   74.579552   50.274750   49.868160
Au   74.579552   50.274750   53.936161
Au   74.579552   50.274750   58.004162
Au   74.579552   50.274750   62.072159
Au   74.579552   54.342751   49.868160
Au   74.579552   54.342751   53.936161
Au   74.579552   54.342751   58.004162
Au   74.579552   58.410751   49.868160
Au   74.579552   58.410751   53.936161
Au   74.579552   62.478748   49.868160
Au   54.239552   52.308750   51.902161
Au   54.239552   52.308750   55.970161
Au   54.239552   52.308750   60.038158
Au   54.239552   52.308750   64.106163
Au   54.239552   52.308750   68.174156
Au   54.239552   52.308750   72.242157
Au   54.239552   56.376751   51.902161
Au   54.239552   56.376751   55.970161
Au   54.239552   56.376751   60.038158
Au   54.239552   56.376751   64.106163
Au   54.239552   56.376751   68.174156
Au   54.239552   56.376751   72.242157
Au   54.239552   60.444752   51.902161
Au   54.239552   60.444752   55.970161
Au   54.239552   60.444752   60.038158
Au   54.239552   60.444752   64.106163
Au   54.239552   60.444752   68.174156
Au   54.239552   60.444752   72.242157
Au   54.239552   64.512749   51.902161
Au   54.239552   64.512749   55.970161
Au   54.239552   64.512749   60.038158
Au   54.239552   64.512749   64.106163
Au   54.239552   64.512749   68.174156
Au   54.239552   68.580750   51.902161
Au   54.239552   68.580750   55.970161
Au   54.239552   68.580750   60.038158
Au   54.239552   68.580750   64.106163
Au   54.239552   72.648750   51.902161
Au   54.239552   72.648750   55.970161
Au   54.239552   72.648750   60.038158
Au   58.307549   52.308750   51.902161
Au   58.307549   52.308750   55.970161
Au   58.307549   52.308750   60.038158
Au   58.307549   52.308750   64.106163
Au   58.307549   52.308750   68.174156
Au   58.307549   52.308750   72.242157
Au   58.307549   56.376751   51.902161
Au   58.307549   56.376751   55.970161
Au   58.307549   56.376751   60.038158
Au   58.307549   56.376751   64.106163
Au   58.307549   56.376751   68.174156
Au   58.307549   56.376751   72.242157
Au   58.307549   60.444752   51.902161
Au   58.307549   60.444752   55.970161
Au   58.307549   60.444752   60.038158
Au   58.307549   60.444752   64.106163
Au   58.307549   60.444752   68.174156
Au   58.307549   64.512749   51.902161
Au   58.307549   64.512749   55.970161
Au   58.307549   64.512749   60.038158
Au   58.307549   64.512749   64.106163
Au   58.307549   68.580750   51.902161
Au   58.307549   68.580750   55.970161
Au   58.307549   68.580750   60.038158
Au   58.307549   72.648750   51.902161
Au   58.307549   72.648750   55.970161
Au   62.375549   52.308750   51.902161
Au   62.375549   52.308750   55.970161
Au   62.375549   52.308750   60.038158
Au   62.375549   52.308750   64.106163
Au   62.375549   52.308750   68.174156
Au   62.375549   52.308750   72.242157
Au   62.375549   56.376751   51.902161
Au   62.375549   56.376751   55.970161
Au   62.375549   56.376751   60.038158
Au   62.375549   56.376751   64.106163
Au   62.375549   56.376751   68.174156
Au   62.375549   60.444752   51.902161
Au   62.375549   60.444752   55.970161
Au   62.375549   60.444752   60.038158
Au   62.375549   60.444752   64.106163
Au   62.375549   64.512749   51.902161
Au   62.375549   64.512749   55.970161
Au   62.375549   64.512749   60.038158
Au   62.375549   68.580750   51.902161
Au   62.375549   68.580750   55.970161
Au   62.375549   72.648750   51.902161
Au   66.443550   52.308750   51.902161
Au   66.443550   52.308750   55.970161
Au   66.443550   52.308750   60.038158
Au   66.443550   52.308750   64.106163
Au   66.443550   52.308750   68.174156
Au   66.443550   56.376751   51.902161
Au   66.443550   56.376751   55.970161
Au   66.443550   56.376751   60.038158
Au   66.443550   56.376751   64.106163
Au   66.443550   60.444752   51.902161
Au   66.443550   60.444752   55.970161
Au   66.443550   60.444752   60.038158
Au   66.443550   64.512749   51.902161
Au   66.443550   64.512749   55.970161
Au   66.443550   68.580750   51.902161
Au   70.511551   52.308750   51.902161
Au   70.511551   52.308750   55.970161
Au   70.511551   52.308750   60.038158
Au   70.511551   52.308750   64.106163
Au   70.511551   56.376751   51.902161
Au   70.511551   56.376751   55.970161
Au   70.511551   56.376751   60.038158
Au   70.511551   60.444752   51.902161
Au   70.511551   60.444752   55.970161
Au   70.511551   64.512749   51.902161
Au   74.579552   52.308750   51.902161
Au   74.579552   52.308750   55.970161
Au   74.579552   52.308750   60.038158
Au   74.579552   56.376751   51.902161
Au   74.579552   56.376751   55.970161
Au   74.579552   60.444752   51.902161
Au   52.205551   50.274750   51.902161
Au   52.205551   50.274750   55.970161
Au   52.205551   50.274750   60.038158
Au   52.205551   50.274750   64.106163
Au   52.205551   50.274750   68.174156
Au   52.205551   50.274750   72.242157
Au   52.205551   54.342751   51.902161
Au   52.205551   54.342751   55.970161
Au   52.205551   54.342751   60.038158
Au   52.205551   54.342751   64.106163
Au   52.205551   54.342751   68.174156
Au   52.205551   54.342751   72.242157
Au   52.205551   58.410751   51.902161
Au   52.205551   58.410751   55.970161
Au   52.205551   58.410751   60.038158
Au   52.205551   58.410751   64.106163
Au   52.205551   58.410751   68.174156
Au   52.205551   58.410751   72.242157
Au   52.205551   62.478748   51.902161
Au   52.205551   62.478748   55.970161
Au   52.205551   62.478748   60.038158
Au   52.205551   62.478748   64.106163
Au   52.205551   62.478748   68.174156
Au   52.205551   62.478748   72.242157
Au   52.205551   66.546753   51.902161
Au   52.205551   66.546753   55.970161
Au   52.205551   66.546753   60.038158
Au   52.205551   66.546753   64.106163
Au   52.205551   66.546753   68.174156
Au   52.205551   70.614754   51.902161
Au   52.205551   70.614754   55.970161
Au   52.205551   70.614754   60.038158
Au   52.205551   70.614754   64.106163
Au   52.205551   74.682747   51.902161
Au   52.205551   74.682747   55.970161
Au   52.205551   74.682747   60.038158
Au   56.273548   50.274750   51.902161
Au   56.273548   50.274750   55.970161
Au   56.273548   50.274750   60.038158
Au   56.273548   50.274750   64.106163
Au   56.273548   50.274750   68.174156
Au   56.273548   50.274750   72.242157
Au   56.273548   54.342751   51.902161
Au   56.273548   54.342751   55.970161
Au   56.273548   54.342751   60.038158
Au   56.273548   54.342751   64.106163
Au   56.273548   54.342751   68.174156
Au   56.273548   54.342751   72.242157
Au   56.273548   58.410751   51.902161
Au   56.273548   58.410751   55.970161
Au   56.273548   58.410751   60.038158
Au   56.273548   58.410751   64.106163
Au   56.273548   58.410751   68.174156
Au   56.273548   58.410751   72.242157
Au   56.273548   62.478748   51.902161
Au   56.273548   62.478748   55.970161
Au   56.273548   62.478748   60.038158
Au   56.273548   62.478748   64.106163
Au   56.273548   62.478748   68.174156
Au   56.273548   66.546753   51.902161
Au   56.273548   66.546753   55.970161
Au   56.273548   66.546753   60.038158
Au   56.273548   66.546753   64.106163
Au   56.273548   70.614754   51.902161
Au   56.273548   70.614754   55.970161
Au   56.273548   70.614754   60.038158
Au   56.273548   74.682747   51.902161
Au   56.273548   74.682747   55.970161
Au   60.341549   50.274750   51.902161
Au   60.341549   50.274750   55.970161
Au   60.341549   50.274750   60.038158
Au   60.341549   50.274750   64.106163
Au   60.341549   50.274750   68.174156
Au   60.341549   50.274750   72.242157
Au   60.341549   54.342751   51.902161
Au   60.341549   54.342751   55.970161
Au   60.341549   54.342751   60.038158
Au   60.341549   54.342751   64.106163
Au   60.341549   54.342751   68.174156
Au   60.341549   54.342751   72.242157
Au   60.341549   58.410751   51.902161
Au   60.341549   58.410751   55.970161
Au   60.341549   58.410751   60.038158
Au   60.341549   58.410751   64.106163
Au   60.341549   58.410751   68.174156
Au   60.341549   62.478748   51.902161
Au   60.341549   62.478748   55.970161
Au   60.341549   62.478748   60.038158
Au   60.341549   62.478748   64.106163
Au   60.341549   66.546753   51.902161
Au   60.341549   66.546753   55.970161
Au   60.341549   66.546753   60.038158
Au   60.341549   70.614754   51.902161
Au   60.341549   70.614754   55.970161
Au   60.341549   74.682747   51.902161
Au   64.409554   50.274750   51.902161
Au   64.409554   50.274750   55.970161
Au   64.409554   50.274750   60.038158
Au   64.409554   50.274750   64.106163
Au   64.409554   50.274750   68.174156
Au   64.409554   50.274750   72.242157
Au   64.409554   54.342751   51.902161
Au   64.409554   54.342751   55.970161
Au   64.409554   54.342751   60.038158
Au   64.409554   54.342751   64.106163
Au   64.409554   54.342751   68.174156
Au   64.409554   58.410751   51.902161
Au   64.409554   58.410751   55.970161
Au   64.409554   58.410751   60.038158
Au   64.409554   58.410751   64.106163
Au   64.409554   62.478748   51.902161
Au   64.409554   62.478748   55.970161
Au   64.409554   62.478748   60.038158
Au   64.409554   66.546753   51.902161
Au   64.409554   66.546753   55.970161
Au   64.409554   70.614754   51.902161
Au   68.477547   50.274750   51.902161
Au   68.477547   50.274750   55.970161
Au   68.477547   50.274750   60.038158
Au   68.477547   50.274750   64.106163
Au   68.477547   50.274750   68.174156
Au   68.477547   54.342751   51.902161
Au   68.477547   54.342751   55.970161
Au   68.477547   54.342751   60.038158
Au   68.477547   54.342751   64.106163
Au   68.477547   58.410751   51.902161
Au   68.477547   58.410751   55.970161
Au   68.477547   58.410751   60.038158
Au   68.477547   62.478748   51.902161
Au   68.477547   62.478748   55.970161
Au   68.477547   66.546753   51.902161
Au   72.545547   50.274750   51.902161
Au   72.545547   50.274750   55.970161
Au   72.545547   50.274750   60.038158
Au   72.545547   50.274750   64.106163
Au   72.545547   54.342751   51.902161
Au   72.545547   54.342751   55.970161
Au   72.545547   54.342751   60.038158
Au   72.545547   58.410751   51.902161
Au   72.545547   58.410751   55.970161
Au   72.545547   62.478748   51.902161
Au   52.205551   52.308750   49.868160
Au   52.205551   52.308750   53.936161
Au   52.205551   52.308750   58.004162
Au   52.205551   52.308750   62.072159
Au   52.205551   52.308750   66.140160
Au   52.205551   52.308750   70.208160
Au   52.205551   52.308750   74.276161
Au   52.205551   56.376751   49.868160
Au   52.205551   56.376751   53.936161
Au   52.205551   56.376751   58.004162
Au   52.205551   56.376751   62.072159
Au   52.205551   56.376751   66.140160
Au   52.205551   56.376751   70.208160
Au   52.205551   56.376751   74.276161
Au   52.205551   60.444752   49.868160
Au   52.205551   60.444752   53.936161
Au   52.205551   60.444752   58.004162
Au   52.205551   60.444752   62.072159
Au   52.205551   60.444752   66.140160
Au   52.205551   60.444752   70.208160
Au   52.205551   60.444752   74.276161
Au   52.205551   64.512749   49.868160
Au   52.205551   64.512749   53.936161
Au   52.205551   64.512749   58.004162
Au   52.205551   64.512749   62.072159
Au   52.205551   64.512749   66.140160
Au   52.205551   64.512749   70.208160
Au   52.205551   68.580750   49.868160
Au   52.205551   68.580750   53.936161
Au   52.205551   68.580750   58.004162
Au   52.205551   68.580750   62.072159
Au   52.205551   68.580750   66.140160
Au   52.205551   72.648750   49.868160
Au   52.205551   72.648750   53.936161
Au   52.205551   72.648750   58.004162
Au   52.205551   72.648750   62.072159
Au   56.273548   52.308750   49.868160
Au   56.273548   52.308750   53.936161
Au   56.273548   52.308750   58.004162
Au   56.273548   52.308750   62.072159
Au   56.273548   52.308750   66.140160
Au   56.273548   52.308750   70.208160
Au   56.273548   52.308750   74.276161
Au   56.273548   56.376751   49.868160
Au   56.273548   56.376751   53.936161
Au   56.273548   56.376751   58.004162
Au   56.273548   56.376751   62.072159
Au   56.273548   56.376751   66.140160
Au   56.273548   56.376751   70.208160
Au   56.273548   56.376751   74.276161
Au   56.273548   60.444752   49.868160
Au   56.273548   60.444752   53.936161
Au   56.273548   60.444752   58.004162
Au   56.273548   60.444752   62.072159
Au   56.273548   60.444752   66.140160
Au   56.273548   60.444752   70.208160
Au   56.273548   64.512749   49.868160
Au   56.273548   64.512749   53.936161
Au   56.273548   64.512749   58.004162
Au   56.273548   64.512749   62.072159
Au   56.273548   64.512749   66.140160
Au   56.273548   68.580750   49.868160
Au   56.273548   68.580750   53.936161
Au   56.273548   68.580750   58.004162
Au   56.273548   68.580750   62.072159
Au   56.273548   72.648750   49.868160
Au   56.273548   72.648750   53.936161
Au   56.273548   72.648750   58.004162
Au   60.341549   52.308750   49.868160
Au   60.341549   52.308750   53.936161
Au   60.341549   52.308750   58.004162
Au   60.341549   52.308750   62.072159
Au   60.341549   52.308750   66.140160
Au   60.341549   52.308750   70.208160
Au   60.341549   52.308750   74.276161
Au   60.341549   56.376751   49.868160
Au   60.341549   56.376751   53.936161
Au   60.341549   56.376751   58.004162
Au   60.341549   56.376751   62.072159
Au   60.341549   56.376751   66.140160
Au   60.341549   56.376751   70.208160
Au   60.341549   60.444752   49.868160
Au   60.341549   60.444752   53.936161
Au   60.341549   60.444752   58.004162
Au   60.341549   60.444752   62.072159
Au   60.341549   60.444752   66.140160
Au   60.341549   64.512749   49.868160
Au   60.341549   64.512749   53.936161
Au   60.341549   64.512749   58.004162
Au   60.341549   64.512749   62.072159
Au   60.341549   68.580750   49.868160
Au   60.341549   68.580750   53.936161
Au   60.341549   68.580750   58.004162
Au   60.341549   72.648750   49.868160
Au   60.341549   72.648750   53.936161
Au   64.409554   52.308750   49.868160
Au   64.409554   52.308750   53.936161
Au   64.409554   52.308750   58.004162
Au   64.409554   52.308750   62.072159
Au   64.409554   52.308750   66.140160
Au   64.409554   52.308750   70.208160
Au   64.409554   56.376751   49.868160
Au   64.409554   56.376751   53.936161
Au   64.409554   56.376751   58.004162
Au   64.409554   56.376751   62.072159
Au   64.409554   56.376751   66.140160
Au   64.409554   60.444752   49.868160
Au   64.409554   60.444752   53.936161
Au   64.409554   60.444752   58.004162
Au   64.409554   60.444752   62.072159
Au   64.409554   64.512749   49.868160
Au   64.409554   64.512749   53.936161
Au   64.409554   64.512749   58.004162
Au   64.409554   68.580750   49.868160
Au   64.409554   68.580750   53.936161
Au   64.409554   72.648750   49.868160
Au   68.477547   52.308750   49.868160
Au   68.477547   52.308750   53.936161
Au   68.477547   52.308750   58.004162
Au   68.477547   52.308750   62.072159
Au   68.477547   52.308750   66.140160
Au   68.477547   56.376751   49.868160
Au   68.477547   56.376751   53.936161
Au   68.477547   56.376751   58.004162
Au   68.477547   56.376751   62.072159
Au   68.477547   60.444752   49.868160
Au   68.477547   60.444752   53.936161
Au   68.477547   60.444752   58.004162
Au   68.477547   64.512749   49.868160
Au   68.477547   64.512749   53.936161
Au   68.477547   68.580750   49.868160
Au   72.545547   52.308750   49.868160
Au   72.545547   52.308750   53.936161
Au   72.545547   52.308750   58.004162
Au   72.545547   52.308750   62.072159
Au   72.545547   56.376751   49.868160
Au   72.545547   56.376751   53.936161
Au   72.545547   56.376751   58.004162
Au   72.545547   60.444752   49.868160
Au   72.545547   60.444752   53.936161
Au   72.545547   64.512749   49.868160
Au   50.171551   54.342751   49.868160
Au   50.171551   54.342751   53.936161
Au   50.171551   54.342751   58.004162
Au   50.171551   54.342751   62.072159
Au   50.171551   54.342751   66.140160
Au   50.171551   54.342751   70.208160
Au   50.171551   54.342751   74.276161
Au   46.103550   54.342751   49.868160
Au   46.103550   54.342751   53.936161
Au   46.103550   54.342751   58.004162
Au   46.103550   54.342751   62.072159
Au   46.103550   54.342751   66.140160
Au   46.103550   54.342751   70.208160
Au   46.103550   54.342751   74.276161
Au   42.035549   54.342751   49.868160
Au   42.035549   54.342751   53.936161
Au   42.035549   54.342751   58.004162
Au   42.035549   54.342751   62.072159
Au   42.035549   54.342751   66.140160
Au   42.035549   54.342751   70.208160
Au   42.035549   54.342751   74.276161
Au   37.967548   54.342751   49.868160
Au   37.967548   54.342751   53.936161
Au   37.967548   54.342751   58.004162
Au   37.967548   54.342751   62.072159
Au   37.967548   54.342751   66.140160
Au   37.967548   54.342751   70.208160
Au   33.899551   54.342751   49.868160
Au   33.899551   54.342751   53.936161
Au   33.899551   54.342751   58.004162
Au   33.899551   54.342751   62.072159
Au   33.899551   54.342751   66.140160
Au   29.831551   54.342751   49.868160
Au   29.831551   54.342751   53.936161
Au   29.831551   54.342751   58.004162
Au   29.831551   54.342751   62.072159
Au   25.763550   54.342751   49.868160
Au   25.763550   54.342751   53.936161
Au   25.763550   54.342751   58.004162
Au   50.171551   58.410751   49.868160
Au   50.171551   58.410751   53.936161
Au   50.171551   58.410751   58.004162
Au   50.171551   58.410751   62.072159
Au   50.171551   58.410751   66.140160
Au   50.171551   58.410751   70.208160
Au   50.171551   58.410751   74.276161
Au   46.103550   58.410751   49.868160
Au   46.103550   58.410751   53.936161
Au   46.103550   58.410751   58.004162
Au   46.103550   58.410751   62.072159
Au   46.103550   58.410751   66.140160
Au   46.103550   58.410751   70.208160
Au   46.103550   58.410751   74.276161
Au   42.035549   58.410751   49.868160
Au   42.035549   58.410751   53.936161
Au   42.035549   58.410751   58.004162
Au   42.035549   58.410751   62.072159
Au   42.035549   58.410751   66.140160
Au   42.035549   58.410751   70.208160
Au   37.967548   58.410751   49.868160
Au   37.967548   58.410751   53.936161
Au   37.967548   58.410751   58.004162
Au   37.967548   58.410751   62.072159
Au   37.967548   58.410751   66.140160
Au   33.899551   58.410751   49.868160
Au   33.899551   58.410751   53.936161
Au   33.899551   58.410751   58.004162
Au   33.899551   58.410751   62.072159
Au   29.831551   58.410751   49.868160
Au   29.831551   58.410751   53.936161
Au   29.831551   58.410751   58.004162
Au   25.763550   58.410751   49.868160
Au   25.763550   58.410751   53.936161
Au   50.171551   62.478748   49.868160
Au   50.171551   62.478748   53.936161
Au   50.171551   62.478748   58.004162
Au   50.171551   62.478748   62.072159
Au   50.171551   62.478748   66.140160
Au   50.171551   62.478748   70.208160
Au   50.171551   62.478748   74.276161
Au   46.103550   62.478748   49.868160
Au   46.103550   62.478748   53.936161
Au   46.103550   62.478748   58.004162
Au   46.103550   62.478748   62.072159
Au   46.103550   62.478748   66.140160
Au   46.103550   62.478748   70.208160
Au   42.035549   62.478748   49.868160
Au   42.035549   62.478748   53.936161
Au   42.035549   62.478748   58.004162
Au   42.035549   62.478748   62.072159
Au   42.035549   62.478748   66.140160
Au   37.967548   62.478748   49.868160
Au   37.967548   62.478748   53.936161
Au   37.967548   62.478748   58.004162
Au   37.967548   62.478748   62.072159
Au   33.899551   62.478748   49.868160
Au   33.899551   62.478748   53.936161
Au   33.899551   62.478748   58.004162
Au   29.831551   62.478748   49.868160
Au   29.831551   62.478748   53.936161
Au   25.763550   62.478748   49.868160
Au   50.171551   66.546753   49.868160
Au   50.171551   66.546753   53.936161
Au   50.171551   66.546753   58.004162
Au   50.171551   66.546753   62.072159
Au   50.171551   66.546753   66.140160
Au   50.171551   66.546753   70.208160
Au   46.103550   66.546753   49.868160
Au   46.103550   66.546753   53.936161
Au   46.103550   66.546753   58.004162
Au   46.103550   66.546753   62.072159
Au   46.103550   66.546753   66.140160
Au   42.035549   66.546753   49.868160
Au   42.035549   66.546753   53.936161
Au   42.035549   66.546753   58.004162
Au   42.035549   66.546753   62.072159
Au   37.967548   66.546753   49.868160
Au   37.967548   66.546753   53.936161
Au   37.967548   66.546753   58.004162
Au   33.899551   66.546753   49.868160
Au   33.899551   66.546753   53.936161
Au   29.831551   66.546753   49.868160
Au   50.171551   70.614754   49.868160
Au   50.171551   70.614754   53.936161
Au   50.171551   70.614754   58.004162
Au   50.171551   70.614754   62.072159
Au   50.171551   70.614754   66.140160
Au   46.103550   70.614754   49.868160
Au   46.103550   70.614754   53.936161
Au   46.103550   70.614754   58.004162
Au   46.103550   70.614754   62.072159
Au   42.035549   70.614754   49.868160
Au   42.035549   70.614754   53.936161
Au   42.035549   70.614754   58.004162
Au   37.967548   70.614754   49.868160
Au   37.967548   70.614754   53.936161
Au   33.899551   70.614754   49.868160
Au   50.171551   74.682747   49.868160
Au   50.171551   74.682747   53.936161
Au   50.171551   74.682747   58.004162
Au   50.171551   74.682747   62.072159
Au   46.103550   74.682747   49.868160
Au   46.103550   74.682747   53.936161
Au   46.103550   74.682747   58.004162
Au   42.035549   74.682747   49.868160
Au   42.035549   74.682747   53.936161
Au   37.967548   74.682747   49.868160
Au   48.137550   54.342751   51.902161
Au   48.137550   54.342751   55.970161
Au   48.137550   54.342751   60.038158
Au   48.137550   54.342751   64.106163
Au   48.137550   54.342751   68.174156
Au   48.137550   54.342751   72.242157
Au   44.069550   54.342751   51.902161
Au   44.069550   54.342751   55.970161
Au   44.069550   54.342751   60.038158
Au   44.069550   54.342751   64.106163
Au   44.069550   54.342751   68.174156
Au   44.069550   54.342751   72.242157
Au   40.001549   54.342751   51.902161
Au   40.001549   54.342751   55.970161
Au   40.001549   54.342751   60.038158
Au   40.001549   54.342751   64.106163
Au   40.001549   54.342751   68.174156
Au   40.001549   54.342751   72.242157
Au   35.933552   54.342751   51.902161
Au   35.933552   54.342751   55.970161
Au   35.933552   54.342751   60.038158
Au   35.933552   54.342751   64.106163
Au   35.933552   54.342751   68.174156
Au   31.865549   54.342751   51.902161
Au   31.865549   54.342751   55.970161
Au   31.865549   54.342751   60.038158
Au   31.865549   54.342751   64.106163
Au   27.797550   54.342751   51.902161
Au   27.797550   54.342751   55.970161
Au   27.797550   54.342751   60.038158
Au   48.137550   58.410751   51.902161
Au   48.137550   58.410751   55.970161
Au   48.137550   58.410751   60.038158
Au   48.137550   58.410751   64.106163
Au   48.137550   58.410751   68.174156
Au   48.137550   58.410751   72.242157
Au   44.069550   58.410751   51.902161
Au   44.069550   58.410751   55.970161
Au   44.069550   58.410751   60.038158
Au   44.069550   58.410751   64.106163
Au   44.069550   58.410751   68.174156
Au   44.069550   58.410751   72.242157
Au   40.001549   58.410751   51.902161
Au   40.001549   58.410751   55.970161
Au   40.001549   58.410751   60.038158
Au   40.001549   58.410751   64.106163
Au   40.001549   58.410751   68.174156
Au   35.933552   58.410751   51.902161
Au   35.933552   58.410751   55.970161
Au   35.933552   58.410751   60.038158
Au   35.933552   58.410751   64.106163
Au   31.865549   58.410751   51.902161
Au   31.865549   58.410751   55.970161
Au   31.865549   58.410751   60.038158
Au   27.797550   58.410751   51.902161
Au   27.797550   58.410751   55.970161
Au   48.137550   62.478748   51.902161
Au   48.137550   62.478748   55.970161
Au   48.137550   62.478748   60.038158
Au   48.137550   62.478748   64.106163
Au   48.137550   62.478748   68.174156
Au   48.137550   62.478748   72.242157
Au   44.069550   62.478748   51.902161
Au   44.069550   62.478748   55.970161
Au   44.069550   62.478748   60.038158
Au   44.069550   62.478748   64.106163
Au   44.069550   62.478748   68.174156
Au   40.001549   62.478748   51.902161
Au   40.001549   62.478748   55.970161
Au   40.001549   62.478748   60.038158
Au   40.001549   62.478748   64.106163
Au   35.933552   62.478748   51.902161
Au   35.933552   62.478748   55.970161
Au   35.933552   62.478748   60.038158
Au   31.865549   62.478748   51.902161
Au   31.865549   62.478748   55.970161
Au   27.797550   62.478748   51.902161
Au   48.137550   66.546753   51.902161
Au   48.137550   66.546753   55.970161
Au   48.137550   66.546753   60.038158
Au   48.137550   66.546753   64.106163
Au   48.137550   66.546753   68.174156
Au   44.069550   66.546753   51.902161
Au   44.069550   66.546753   55.970161
Au   44.069550   66.546753   60.038158
Au   44.069550   66.546753   64.106163
Au   40.001549   66.546753   51.902161
Au   40.001549   66.546753   55.970161
Au   40.001549   66.546753   60.038158
Au   35.933552   66.546753   51.902161
Au   35.933552   66.546753   55.970161
Au   31.865549   66.546753   51.902161
Au   48.137550   70.614754   51.902161
Au   48.137550   70.614754   55.970161
Au   48.137550   70.614754   60.038158
Au   48.137550   70.614754   64.106163
Au   44.069550   70.614754   51.902161
Au   44.069550   70.614754   55.970161
Au   44.069550   70.614754   60.038158
Au   40.001549   70.614754   51.902161
Au   40.001549   70.614754   55.970161
Au   35.933552   70.614754   51.902161
Au   48.137550   74.682747   51.902161
Au   48.137550   74.682747   55.970161
Au   48.137550   74.682747   60.038158
Au   44.069550   74.682747   51.902161
Au   44.069550   74.682747   55.970161
Au   40.001549   74.682747   51.902161
Au   50.171551   52.308750   51.902161
Au   50.171551   52.308750   55.970161
Au   50.171551   52.308750   60.038158
Au   50.171551   52.308750   64.106163
Au   50.171551   52.308750   68.174156
Au   50.171551   52.308750   72.242157
Au   46.103550   52.308750   51.902161
Au   46.103550   52.308750   55.970161
Au   46.103550   52.308750   60.038158
Au   46.103550   52.308750   64.106163
Au   46.103550   52.308750   68.174156
Au   46.103550   52.308750   72.242157
Au   42.035549   52.308750   51.902161
Au   42.035549   52.308750   55.970161
Au   42.035549   52.308750   60.038158
Au   42.035549   52.308750   64.106163
Au   42.035549   52.308750   68.174156
Au   42.035549   52.308750   72.242157
Au   37.967548   52.308750   51.902161
Au   37.967548   52.308750   55.970161
Au   37.967548   52.308750   60.038158
Au   37.967548   52.308750   64.106163
Au   37.967548   52.308750   68.174156
Au   37.967548   52.308750   72.242157
Au   33.899551   52.308750   51.902161
Au   33.899551   52.308750   55.970161
Au   33.899551   52.308750   60.038158
Au   33.899551   52.308750   64.106163
Au   33.899551   52.308750   68.174156
Au   29.831551   52.308750   51.902161
Au   29.831551   52.308750   55.970161
Au   29.831551   52.308750   60.038158
Au   29.831551   52.308750   64.106163
Au   25.763550   52.308750   51.902161
Au   25.763550   52.308750   55.970161
Au   25.763550   52.308750   60.038158
Au   50.171551   56.376751   51.902161
Au   50.171551   56.376751   55.970161
Au   50.171551   56.376751   60.038158
Au   50.171551   56.376751   64.106163
Au   50.171551   56.376751   68.174156
Au   50.171551   56.376751   72.242157
Au   46.103550   56.376751   51.902161
Au   46.103550   56.376751   55.970161
Au   46.103550   56.376751   60.038158
Au   46.103550   56.376751   64.106163
Au   46.103550   56.376751   68.174156
Au   46.103550   56.376751   72.242157
Au   42.035549   56.376751   51.902161
Au   42.035549   56.376751   55.970161
Au   42.035549   56.376751   60.038158
Au   42.035549   56.376751   64.106163
Au   42.035549   56.376751   68.174156
Au   42.035549   56.376751   72.242157
Au   37.967548   56.376751   51.902161
Au   37.967548   56.376751   55.970161
Au   37.967548   56.376751   60.038158
Au   37.967548   56.376751   64.106163
Au   37.967548   56.376751   68.174156
Au   33.899551   56.376751   51.902161
Au   33.899551   56.376751   55.970161
Au   33.899551   56.376751   60.038158
Au   33.899551   56.376751   64.106163
Au   29.831551   56.376751   51.902161
Au   29.831551   56.376751   55.970161
Au   29.831551   56.376751   60.038158
Au   25.763550   56.376751   51.902161
Au   25.763550   56.376751   55.970161
Au   50.171551   60.444752   51.902161
Au   50.171551   60.444752   55.970161
Au   50.171551   60.444752   60.038158
Au   50.171551   60.444752   64.106163
Au   50.171551   60.444752   68.174156
Au   50.171551   60.444752   72.242157
Au   46.103550   60.444752   51.902161
Au   46.103550   60.444752   55.970161
Au   46.103550   60.444752   60.038158
Au   46.103550   60.444752   64.106163
Au   46.103550   60.444752   68.174156
Au   46.103550   60.444752   72.242157
Au   42.035549   60.444752   51.902161
Au   42.035549   60.444752   55.970161
Au   42.035549   60.444752   60.038158
Au   42.035549   60.444752   64.106163
Au   42.035549   60.444752   68.174156
Au   37.967548   60.444752   51.902161
Au   37.967548   60.444752   55.970161
Au   37.967548   60.444752   60.038158
Au   37.967548   60.444752   64.106163
Au   33.899551   60.444752   51.902161
Au   33.899551   60.444752   55.970161
Au   33.899551   60.444752   60.038158
Au   29.831551   60.444752   51.902161
Au   29.831551   60.444752   55.970161
Au   25.763550   60.444752   51.902161
Au   50.171551   64.512749   51.902161
Au   50.171551   64.512749   55.970161
Au   50.171551   64.512749   60.038158
Au   50.171551   64.512749   64.106163
Au   50.171551   64.512749   68.174156
Au   50.171551   64.512749   72.242157
Au   46.103550   64.512749   51.902161
Au   46.103550   64.512749   55.970161
Au   46.103550   64.512749   60.038158
Au   46.103550   64.512749   64.106163
Au   46.103550   64.512749   68.174156
Au   42.035549   64.512749   51.902161
Au   42.035549   64.512749   55.970161
Au   42.035549   64.512749   60.038158
Au   42.035549   64.512749   64.106163
Au   37.967548   64.512749   51.902161
Au   37.967548   64.512749   55.970161
Au   37.967548   64.512749   60.038158
Au   33.899551   64.512749   51.902161
Au   33.899551   64.512749   55.970161
Au   29.831551   64.512749   51.902161
Au   50.171551   68.580750   51.902161
Au   50.171551   68.580750   55.970161
Au   50.171551   68.580750   60.038158
Au   50.171551   68.580750   64.106163
Au   50.171551   68.580750   68.174156
Au   46.103550   68.580750   51.902161
Au   46.103550   68.580750   55.970161
Au   46.103550   68.580750   60.038158
Au   46.103550   68.580750   64.106163
Au   42.035549   68.580750   51.902161
Au   42.035549   68.580750   55.970161
Au   42.035549   68.580750   60.038158
Au   37.967548   68.580750   51.902161
Au   37.967548   68.580750   55.970161
Au   33.899551   68.580750   51.902161
Au   50.171551   72.648750   51.902161
Au   50.171551   72.648750   55.970161
Au   50.171551   72.648750   60.038158
Au   50.171551   72.648750   64.106163
Au   46.103550   72.648750   51.902161
Au   46.103550   72.648750   55.970161
Au   46.103550   72.648750   60.038158
Au   42.035549   72.648750   51.902161
Au   42.035549   72.648750   55.970161
Au   37.967548   72.648750   51.902161
Au   48.137550   52.308750   49.868160
Au   48.137550   52.308750   53.936161
Au   48.137550   52.308750   58.004162
Au   48.137550   52.308750   62.072159
Au   48.137550   52.308750   66.140160
Au   48.137550   52.308750   70.208160
Au   48.137550   52.308750   74.276161
Au   44.069550   52.308750   49.868160
Au   44.069550   52.308750   53.936161
Au   44.069550   52.308750   58.004162
Au   44.069550   52.308750   62.072159
Au   44.069550   52.308750   66.140160
Au   44.069550   52.308750   70.208160
Au   44.069550   52.308750   74.276161
Au   40.001549   52.308750   49.868160
Au   40.001549   52.308750   53.936161
Au   40.001549   52.308750   58.004162
Au   40.001549   52.308750   62.072159
Au   40.001549   52.308750   66.140160
Au   40.001549   52.308750   70.208160
Au   40.001549   52.308750   74.276161
Au   35.933552   52.308750   49.868160
Au   35.933552   52.308750   53.936161
Au   35.933552   52.308750   58.004162
Au   35.933552   52.308750   62.072159
Au   35.933552   52.308750   66.140160
Au   35.933552   52.308750   70.208160
Au   31.865549   52.308750   49.868160
Au   31.865549   52.308750   53.936161
Au   31.865549   52.308750   58.004162
Au   31.865549   52.308750   62.072159
Au   31.865549   52.308750   66.140160
Au   27.797550   52.308750   49.868160
Au   27.797550   52.308750   53.936161
Au   27.797550   52.308750   58.004162
Au   27.797550   52.308750   62.072159
Au   48.137550   56.376751   49.868160
Au   48.137550   56.376751   53.936161
Au   48.137550   56.376751   58.004162
Au   48.137550   56.376751   62.072159
Au   48.137550   56.376751   66.140160
Au   48.137550   56.376751   70.208160
Au   48.137550   56.376751   74.276161
Au   44.069550   56.376751   49.868160
Au   44.069550   56.376751   53.936161
Au   44.069550   56.376751   58.004162
Au   44.069550   56.376751   62.072159
Au   44.069550   56.376751   66.140160
Au   44.069550   56.376751   70.208160
Au   44.069550   56.376751   74.276161
Au   40.001549   56.376751   49.868160
Au   40.001549   56.376751   53.936161
Au   40.001549   56.376751   58.004162
Au   40.001549   56.376751   62.072159
Au   40.001549   56.376751   66.140160
Au   40.001549   56.376751   70.208160
Au   35.933552   56.376751   49.868160
Au   35.933552   56.376751   53.936161
Au   35.933552   56.376751   58.004162
Au   35.933552   56.376751   62.072159
Au   35.933552   56.376751   66.140160
Au   31.865549   56.376751   49.868160
Au   31.865549   56.376751   53.936161
Au   31.865549   56.376751   58.004162
Au   31.865549   56.376751   62.072159
Au   27.797550   56.376751   49.868160
Au   27.797550   56.376751   53.936161
Au   27.797550   56.376751   58.004162
Au   48.137550   60.444752   49.868160
Au   48.137550   60.444752   53.936161
Au   48.137550   60.444752   58.004162
Au   48.137550   60.444752   62.072159
Au   48.137550   60.444752   66.140160
Au   48.137550   60.444752   70.208160
Au   48.137550   60.444752   74.276161
Au   44.069550   60.444752   49.868160
Au   44.069550   60.444752   53.936161
Au   44.069550   60.444752   58.004162
Au   44.069550   60.444752   62.072159
Au   44.069550   60.444752   66.140160
Au   44.069550   60.444752   70.208160
Au   40.001549   60.444752   49.868160
Au   40.001549   60.444752   53.936161
Au   40.001549   60.444752   58.004162
Au   40.001549   60.444752   62.072159
Au   40.001549   60.444752   66.140160
Au   35.933552   60.444752   49.868160
Au   35.933552   60.444752   53.936161
Au   35.933552   60.444752   58.004162
Au   35.933552   60.444752   62.072159
Au   31.865549   60.444752   49.868160
Au   31.865549   60.444752   53.936161
Au   31.865549   60.444752   58.004162
Au   27.797550   60.444752   49.868160
Au   27.797550   60.444752   53.936161
Au   48.137550   64.512749   49.868160
Au   48.137550   64.512749   53.936161
Au   48.137550   64.512749   58.004162
Au   48.137550   64.512749   62.072159
Au   48.137550   64.512749   66.140160
Au   48.137550   64.512749   70.208160
Au   44.069550   64.512749   49.868160
Au   44.069550   64.512749   53.936161
Au   44.069550   64.512749   58.004162
Au   44.069550   64.512749   62.072159
Au   44.069550   64.512749   66.140160
Au   40.001549   64.512749   49.868160
Au   40.001549   64.512749   53.936161
Au   40.001549   64.512749   58.004162
Au   40.001549   64.512749   62.072159
Au   35.933552   64.512749   49.868160
Au   35.933552   64.512749   53.936161
Au   35.933552   64.512749   58.004162
Au   31.865549   64.512749   49.868160
Au   31.865549   64.512749   53.936161
Au   27.797550   64.512749   49.868160
Au   48.137550   68.580750   49.868160
Au   48.137550   68.580750   53.936161
Au   48.137550   68.580750   58.004162
Au   48.137550   68.580750   62.072159
Au   48.137550   68.580750   66.140160
Au   44.069550   68.580750   49.868160
Au   44.069550   68.580750   53.936161
Au   44.069550   68.580750   58.004162
Au   44.069550   68.580750   62.072159
Au   40.001549   68.580750   49.868160
Au   40.001549   68.580750   53.936161
Au   40.001549   68.580750   58.004162
Au   35.933552   68.580750   49.868160
Au   35.933552   68.580750   53.936161
Au   31.865549   68.580750   49.868160
Au   48.137550   72.648750   49.868160
Au   48.137550   72.648750   53.936161
Au   48.137550   72.648750   58.004162
Au   48.137550   72.648750   62.072159
Au   44.069550   72.648750   49.868160
Au   44.069550   72.648750   53.936161
Au   44.069550   72.648750   58.004162
Au   40.001549   72.648750   49.868160
Au   40.001549   72.648750   53.936161
Au   35.933552   72.648750   49.868160
Au   46.103550   50.274750   49.868160
Au   46.103550   50.274750   53.936161
Au   46.103550   50.274750   58.004162
Au   46.103550   50.274750   62.072159
Au   46.103550   50.274750   66.140160
Au   46.103550   50.274750   70.208160
Au   46.103550   50.274750   74.276161
Au   46.103550   46.206749   49.868160
Au   46.103550   46.206749   53.936161
Au   46.103550   46.206749   58.004162
Au   46.103550   46.206749   62.072159
Au   46.103550   46.206749   66.140160
Au   46.103550   46.206749   70.208160
Au   46.103550   46.206749   74.276161
Au   46.103550   42.138748   49.868160
Au   46.103550   42.138748   53.936161
Au   46.103550   42.138748   58.004162
Au   46.103550   42.138748   62.072159
Au   46.103550   42.138748   66.140160
Au   46.103550   42.138748   70.208160
Au   46.103550   42.138748   74.276161
Au   46.103550   38.070751   49.868160
Au   46.103550   38.070751   53.936161
Au   46.103550   38.070751   58.004162
Au   46.103550   38.070751   62.072159
Au   46.103550   38.070751   66.140160
Au   46.103550   38.070751   70.208160
Au   46.103550   34.002750   49.868160
Au   46.103550   34.002750   53.936161
Au   46.103550   34.002750   58.004162
Au   46.103550   34.002750   62.072159
Au   46.103550   34.002750   66.140160
Au   46.103550   29.934750   49.868160
Au   46.103550   29.934750   53.936161
Au   46.103550   29.934750   58.004162
Au   46.103550   29.934750   62.072159
Au   46.103550   25.866751   49.868160
Au   46.103550   25.866751   53.936161
Au   46.103550   25.866751   58.004162
Au   42.035549   50.274750   49.868160
Au   42.035549   50.274750   53.936161
Au   42.035549   50.274750   58.004162
Au   42.035549   50.274750   62.072159
Au   42.035549   50.274750   66.140160
Au   42.035549   50.274750   70.208160
Au   42.035549   50.274750   74.276161
Au   42.035549   46.206749   49.868160
Au   42.035549   46.206749   53.936161
Au   42.035549   46.206749   58.004162
Au   42.035549   46.206749   62.072159
Au   42.035549   46.206749   66.140160
Au   42.035549   46.206749   70.208160
Au   42.035549   46.206749   74.276161
Au   42.035549   42.138748   49.868160
Au   42.035549   42.138748   53.936161
Au   42.035549   42.138748   58.004162
Au   42.035549   42.138748   62.072159
Au   42.035549   42.138748   66.140160
Au   42.035549   42.138748   70.208160
Au   42.035549   38.070751   49.868160
Au   42.035549   38.070751   53.936161
Au   42.035549   38.070751   58.004162
Au   42.035549   38.070751   62.072159
Au   42.035549   38.070751   66.140160
Au   42.035549   34.002750   49.868160
Au   42.035549   34.002750   53.936161
Au   42.035549   34.002750   58.004162
Au   42.035549   34.002750   62.072159
Au   42.035549   29.934750   49.868160
Au   42.035549   29.934750   53.936161
Au   42.035549   29.934750   58.004162
Au   42.035549   25.866751   49.868160
Au   42.035549   25.866751   53.936161
Au   37.967548   50.274750   49.868160
Au   37.967548   50.274750   53.936161
Au   37.967548   50.274750   58.004162
Au   37.967548   50.274750   62.072159
Au   37.967548   50.274750   66.140160
Au   37.967548   50.274750   70.208160
Au   37.967548   50.274750   74.276161
Au   37.967548   46.206749   49.868160
Au   37.967548   46.206749   53.936161
Au   37.967548   46.206749   58.004162
Au   37.967548   46.206749   62.072159
Au   37.967548   46.206749   66.140160
Au   37.967548   46.206749   70.208160
Au   37.967548   42.138748   49.868160
Au   37.967548   42.138748   53.936161
Au   37.967548   42.138748   58.004162
Au   37.967548   42.138748   62.072159
Au   37.967548   42.138748   66.140160
Au   37.967548   38.070751   49.868160
Au   37.967548   38.070751   53.936161
Au   37.967548   38.070751   58.004162
Au   37.967548   38.070751   62.072159
Au   37.967548   34.002750   49.868160
Au   37.967548   34.002750   53.936161
Au   37.967548   34.002750   58.004162
Au   37.967548   29.934750   49.868160
Au   37.967548   29.934750   53.936161
Au   37.967548   25.866751   49.868160
Au   33.899551   50.274750   49.868160
Au   33.899551   50.274750   53.936161
Au   33.899551   50.274750   58.004162
Au   33.899551   50.274750   62.072159
Au   33.899551   50.274750   66.140160
Au   33.899551   50.274750   70.208160
Au   33.899551   46.206749   49.868160
Au   33.899551   46.206749   53.936161
Au   33.899551   46.206749   58.004162
Au   33.899551   46.206749   62.072159
Au   33.899551   46.206749   66.140160
Au   33.899551   42.138748   49.868160
Au   33.899551   42.138748   53.936161
Au   33.899551   42.138748   58.004162
Au   33.899551   42.138748   62.072159
Au   33.899551   38.070751   49.868160
Au   33.899551   38.070751   53.936161
Au   33.899551   38.070751   58.004162
Au   33.899551   34.002750   49.868160
Au   33.899551   34.002750   53.936161
Au   33.899551   29.934750   49.868160
Au   29.831551   50.274750   49.868160
Au   29.831551   50.274750   53.936161
Au   29.831551   50.274750   58.004162
Au   29.831551   50.274750   62.072159
Au   29.831551   50.274750   66.140160
Au   29.831551   46.206749   49.868160
Au   29.831551   46.206749   53.936161
Au   29.831551   46.206749   58.004162
Au   29.831551   46.206749   62.072159
Au   29.831551   42.138748   49.868160
Au   29.831551   42.138748   53.936161
Au   29.831551   42.138748   58.004162
Au   29.831551   38.070751   49.868160
Au   29.831551   38.070751   53.936161
Au   29.831551   34.002750   49.868160
Au   25.763550   50.274750   49.868160
Au   25.763550   50.274750   53.936161
Au   25.763550   50.274750   58.004162
Au   25.763550   50.274750   62.072159
Au   25.763550   46.206749   49.868160
Au   25.763550   46.206749   53.936161
Au   25.763550   46.206749   58.004162
Au   25.763550   42.138748   49.868160
Au   25.763550   42.138748   53.936161
Au   25.763550   38.070751   49.868160
Au   46.103550   48.240749   51.902161
Au   46.103550   48.240749   55.970161
Au   46.103550   48.240749   60.038158
Au   46.103550   48.240749   64.106163
Au   46.103550   48.240749   68.174156
Au   46.103550   48.240749   72.242157
Au   46.103550   44.172749   51.902161
Au   46.103550   44.172749   55.970161
Au   46.103550   44.172749   60.038158
Au   46.103550   44.172749   64.106163
Au   46.103550   44.172749   68.174156
Au   46.103550   44.172749   72.242157
Au   46.103550   40.104752   51.902161
Au   46.103550   40.104752   55.970161
Au   46.103550   40.104752   60.038158
Au   46.103550   40.104752   64.106163
Au   46.103550   40.104752   68.174156
Au   46.103550   40.104752   72.242157
Au   46.103550   36.036751   51.902161
Au   46.103550   36.036751   55.970161
Au   46.103550   36.036751   60.038158
Au   46.103550   36.036751   64.106163
Au   46.103550   36.036751   68.174156
Au   46.103550   31.968750   51.902161
Au   46.103550   31.968750   55.970161
Au   46.103550   31.968750   60.038158
Au   46.103550   31.968750   64.106163
Au   46.103550   27.900749   51.902161
Au   46.103550   27.900749   55.970161
Au   46.103550   27.900749   60.038158
Au   42.035549   48.240749   51.902161
Au   42.035549   48.240749   55.970161
Au   42.035549   48.240749   60.038158
Au   42.035549   48.240749   64.106163
Au   42.035549   48.240749   68.174156
Au   42.035549   48.240749   72.242157
Au   42.035549   44.172749   51.902161
Au   42.035549   44.172749   55.970161
Au   42.035549   44.172749   60.038158
Au   42.035549   44.172749   64.106163
Au   42.035549   44.172749   68.174156
Au   42.035549   44.172749   72.242157
Au   42.035549   40.104752   51.902161
Au   42.035549   40.104752   55.970161
Au   42.035549   40.104752   60.038158
Au   42.035549   40.104752   64.106163
Au   42.035549   40.104752   68.174156
Au   42.035549   36.036751   51.902161
Au   42.035549   36.036751   55.970161
Au   42.035549   36.036751   60.038158
Au   42.035549   36.036751   64.106163
Au   42.035549   31.968750   51.902161
Au   42.035549   31.968750   55.970161
Au   42.035549   31.968750   60.038158
Au   42.035549   27.900749   51.902161
Au   42.035549   27.900749   55.970161
Au   37.967548   48.240749   51.902161
Au   37.967548   48.240749   55.970161
Au   37.967548   48.240749   60.038158
Au   37.967548   48.240749   64.106163
Au   37.967548   48.240749   68.174156
Au   37.967548   48.240749   72.242157
Au   37.967548   44.172749   51.902161
Au   37.967548   44.172749   55.970161
Au   37.967548   44.172749   60.038158
Au   37.967548   44.172749   64.106163
Au   37.967548   44.172749   68.174156
Au   37.967548   40.104752   51.902161
Au   37.967548   40.104752   55.970161
Au   37.967548   40.104752   60.038158
Au   37.967548   40.104752   64.106163
Au   37.967548   36.036751   51.902161
Au   37.967548   36.036751   55.970161
Au   37.967548   36.036751   60.038158
Au   37.967548   31.968750   51.902161
Au   37.967548   31.968750   55.970161
Au   37.967548   27.900749   51.902161
Au   33.899551   48.240749   51.902161
Au   33.899551   48.240749   55.970161
Au   33.899551   48.240749   60.038158
Au   33.899551   48.240749   64.106163
Au   33.899551   48.240749   68.174156
Au   33.899551   44.172749   51.902161
Au   33.899551   44.172749   55.970161
Au   33.899551   44.172749   60.038158
Au   33.899551   44.172749   64.106163
Au   33.899551   40.104752   51.902161
Au   33.899551   40.104752   55.970161
Au   33.899551   40.104752   60.038158
Au   33.899551   36.036751   51.902161
Au   33.899551   36.036751   55.970161
Au   33.899551   31.968750   51.902161
Au   29.831551   48.240749   51.902161
Au   29.831551   48.240749   55.970161
Au   29.831551   48.240749   60.038158
Au   29.831551   48.240749   64.106163
Au   29.831551   44.172749   51.902161
Au   29.831551   44.172749   55.970161
Au   29.831551   44.172749   60.038158
Au   29.831551   40.104752   51.902161
Au   29.831551   40.104752   55.970161
Au   29.831551   36.036751   51.902161
Au   25.763550   48.240749   51.902161
Au   25.763550   48.240749   55.970161
Au   25.763550   48.240749   60.038158
Au   25.763550   44.172749   51.902161
Au   25.763550   44.172749   55.970161
Au   25.763550   40.104752   51.902161
Au   48.137550   50.274750   51.902161
Au   48.137550   50.274750   55.970161
Au   48.137550   50.274750   60.038158
Au   48.137550   50.274750   64.106163
Au   48.137550   50.274750   68.174156
Au   48.137550   50.274750   72.242157
Au   48.137550   46.206749   51.902161
Au   48.137550   46.206749   55.970161
Au   48.137550   46.206749   60.038158
Au   48.137550   46.206749   64.106163
Au   48.137550   46.206749   68.174156
Au   48.137550   46.206749   72.242157
Au   48.137550   42.138748   51.902161
Au   48.137550   42.138748   55.970161
Au   48.137550   42.138748   60.038158
Au   48.137550   42.138748   64.106163
Au   48.137550   42.138748   68.174156
Au   48.137550   42.138748   72.242157
Au   48.137550   38.070751   51.902161
Au   48.137550   38.070751   55.970161
Au   48.137550   38.070751   60.038158
Au   48.137550   38.070751   64.106163
Au   48.137550   38.070751   68.174156
Au   48.137550   38.070751   72.242157
Au   48.137550   34.002750   51.902161
Au   48.137550   34.002750   55.970161
Au   48.137550   34.002750   60.038158
Au   48.137550   34.002750   64.106163
Au   48.137550   34.002750   68.174156
Au   48.137550   29.934750   51.902161
Au   48.137550   29.934750   55.970161
Au   48.137550   29.934750   60.038158
Au   48.137550   29.934750   64.106163
Au   48.137550   25.866751   51.902161
Au   48.137550   25.866751   55.970161
Au   48.137550   25.866751   60.038158
Au   44.069550   50.274750   51.902161
Au   44.069550   50.274750   55.970161
Au   44.069550   50.274750   60.038158
Au   44.069550   50.274750   64.106163
Au   44.069550   50.274750   68.174156
Au   44.069550   50.274750   72.242157
Au   44.069550   46.206749   51.902161
Au   44.069550   46.206749   55.970161
Au   44.069550   46.206749   60.038158
Au   44.069550   46.206749   64.106163
Au   44.069550   46.206749   68.174156
Au   44.069550   46.206749   72.242157
Au   44.069550   42.138748   51.902161
Au   44.069550   42.138748   55.970161
Au   44.069550   42.138748   60.038158
Au   44.069550   42.138748   64.106163
Au   44.069550   42.138748   68.174156
Au   44.069550   42.138748   72.242157
Au   44.069550   38.070751   51.902161
Au   44.069550   38.070751   55.970161
Au   44.069550   38.070751   60.038158
Au   44.069550   38.070751   64.106163
Au   44.069550   38.070751   68.174156
Au   44.069550   34.002750   51.902161
Au   44.069550   34.002750   55.970161
Au   44.069550   34.002750   60.038158
Au   44.069550   34.002750   64.106163
Au   44.069550   29.934750   51.902161
Au   44.069550   29.934750   55.970161
Au   44.069550   29.934750   60.038158
Au   44.069550   25.866751   51.902161
Au   44.069550   25.866751   55.970161
Au   40.001549   50.274750   51.902161
Au   40.001549   50.274750   55.970161
Au   40.001549   50.274750   60.038158
Au   40.001549   50.274750   64.106163
Au   40.001549   50.274750   68.174156
Au   40.001549   50.274750   72.242157
Au   40.001549   46.206749   51.902161
Au   40.001549   46.206749   55.970161
Au   40.001549   46.206749   60.038158
Au   40.001549   46.206749   64.106163
Au   40.001549   46.206749   68.174156
Au   40.001549   46.206749   72.242157
Au   40.001549   42.138748   51.902161
Au   40.001549   42.138748   55.970161
Au   40.001549   42.138748   60.038158
Au   40.001549   42.138748   64.106163
Au   40.001549   42.138748   68.174156
Au   40.001549   38.070751   51.902161
Au   40.001549   38.070751   55.970161
Au   40.001549   38.070751   60.038158
Au   40.001549   38.070751   64.106163
Au   40.001549   34.002750   51.902161
Au   40.001549   34.002750   55.970161
Au   40.001549   34.002750   60.038158
Au   40.001549   29.934750   51.902161
Au   40.001549   29.934750   55.970161
Au   40.001549   25.866751   51.902161
Au   35.933552   50.274750   51.902161
Au   35.933552   50.274750   55.970161
Au   35.933552   50.274750   60.038158
Au   35.933552   50.274750   64.106163
Au   35.933552   50.274750   68.174156
Au   35.933552   50.274750   72.242157
Au   35.933552   46.206749   51.902161
Au   35.933552   46.206749   55.970161
Au   35.933552   46.206749   60.038158
Au   35.933552   46.206749   64.106163
Au   35.933552   46.206749   68.174156
Au   35.933552   42.138748   51.902161
Au   35.933552   42.138748   55.970161
Au   35.933552   42.138748   60.038158
Au   35.933552   42.138748   64.106163
Au   35.933552   38.070751   51.902161
Au   35.933552   38.070751   55.970161
Au   35.933552   38.070751   60.038158
Au   35.933552   34.002750   51.902161
Au   35.933552   34.002750   55.970161
Au   35.933552   29.934750   51.902161
Au   31.865549   50.274750   51.902161
Au   31.865549   50.274750   55.970161
Au   31.865549   50.274750   60.038158
Au   31.865549   50.274750   64.106163
Au   31.865549   50.274750   68.174156
Au   31.865549   46.206749   51.902161
Au   31.865549   46.206749   55.970161
Au   31.865549   46.206749   60.038158
Au   31.865549   46.206749   64.106163
Au   31.865549   42.138748   51.902161
Au   31.865549   42.138748   55.970161
Au   31.865549   42.138748   60.038158
Au   31.865549   38.070751   51.902161
Au   31.865549   38.070751   55.970161
Au   31.865549   34.002750   51.902161
Au   27.797550   50.274750   51.902161
Au   27.797550   50.274750   55.970161
Au   27.797550   50.274750   60.038158
Au   27.797550   50.274750   64.106163
Au   27.797550   46.206749   51.902161
Au   27.797550   46.206749   55.970161
Au   27.797550   46.206749   60.038158
Au   27.797550   42.138748   51.902161
Au   27.797550   42.138748   55.970161
Au   27.797550   38.070751   51.902161
Au   48.137550   48.240749   49.868160
Au   48.137550   48.240749   53.936161
Au   48.137550   48.240749   58.004162
Au   48.137550   48.240749   62.072159
Au   48.137550   48.240749   66.140160
Au   48.137550   48.240749   70.208160
Au   48.137550   48.240749   74.276161
Au   48.137550   44.172749   49.868160
Au   48.137550   44.172749   53.936161
Au   48.137550   44.172749   58.004162
Au   48.137550   44.172749   62.072159
Au   48.137550   44.172749   66.140160
Au   48.137550   44.172749   70.208160
Au   48.137550   44.172749   74.276161
Au   48.137550   40.104752   49.868160
Au   48.137550   40.104752   53.936161
Au   48.137550   40.104752   58.004162
Au   48.137550   40.104752   62.072159
Au   48.137550   40.104752   66.140160
Au   48.137550   40.104752   70.208160
Au   48.137550   40.104752   74.276161
Au   48.137550   36.036751   49.868160
Au   48.137550   36.036751   53.936161
Au   48.137550   36.036751   58.004162
Au   48.137550   36.036751   62.072159
Au   48.137550   36.036751   66.140160
Au   48.137550   36.036751   70.208160
Au   48.137550   31.968750   49.868160
Au   48.137550   31.968750   53.936161
Au   48.137550   31.968750   58.004162
Au   48.137550   31.968750   62.072159
Au   48.137550   31.968750   66.140160
Au   48.137550   27.900749   49.868160
Au   48.137550   27.900749   53.936161
Au   48.137550   27.900749   58.004162
Au   48.137550   27.900749   62.072159
Au   44.069550   48.240749   49.868160
Au   44.069550   48.240749   53.936161
Au   44.069550   48.240749   58.004162
Au   44.069550   48.240749   62.072159
Au   44.069550   48.240749   66.140160
Au   44.069550   48.240749   70.208160
Au   44.069550   48.240749   74.276161
Au   44.069550   44.172749   49.868160
Au   44.069550   44.172749   53.936161
Au   44.069550   44.172749   58.004162
Au   44.069550   44.172749   62.072159
Au   44.069550   44.172749   66.140160
Au   44.069550   44.172749   70.208160
Au   44.069550   44.172749   74.276161
Au   44.069550   40.104752   49.868160
Au   44.069550   40.104752   53.936161
Au   44.069550   40.104752   58.004162
Au   44.069550   40.104752   62.072159
Au   44.069550   40.104752   66.140160
Au   44.069550   40.104752   70.208160
Au   44.069550   36.036751   49.868160
Au   44.069550   36.036751   53.936161
Au   44.069550   36.036751   58.004162
Au   44.069550   36.036751   62.072159
Au   44.069550   36.036751   66.140160
Au   44.069550   31.968750   49.868160
Au   44.069550   31.968750   53.936161
Au   44.069550   31.968750   58.004162
Au   44.069550   31.968750   62.072159
Au   44.069550   27.900749   49.868160
Au   44.069550   27.900749   53.936161
Au   44.069550   27.900749   58.004162
Au   40.001549   48.240749   49.868160
Au   40.001549   48.240749   53.936161
Au   40.001549   48.240749   58.004162
Au   40.001549   48.240749   62.072159
Au   40.001549   48.240749   66.140160
Au   40.001549   48.240749   70.208160
Au   40.001549   48.240749   74.276161
Au   40.001549   44.172749   49.868160
Au   40.001549   44.172749   53.936161
Au   40.001549   44.172749   58.004162
Au   40.001549   44.172749   62.072159
Au   40.001549   44.172749   66.140160
Au   40.001549   44.172749   70.208160
Au   40.001549   40.104752   49.868160
Au   40.001549   40.104752   53.936161
Au   40.001549   40.104752   58.004162
Au   40.001549   40.104752   62.072159
Au   40.001549   40.104752   66.140160
Au   40.001549   36.036751   49.868160
Au   40.001549   36.036751   53.936161
Au   40.001549   36.036751   58.004162
Au   40.001549   36.036751   62.072159
Au   40.001549   31.968750   49.868160
Au   40.001549   31.968750   53.936161
Au   40.001549   31.968750   58.004162
Au   40.001549   27.900749   49.868160
Au   40.001549   27.900749   53.936161
Au   35.933552   48.240749   49.868160
Au   35.933552   48.240749   53.936161
Au   35.933552   48.240749   58.004162
Au   35.933552   48.240749   62.072159
Au   35.933552   48.240749   66.140160
Au   35.933552   48.240749   70.208160
Au   35.933552   44.172749   49.868160
Au   35.933552   44.172749   53.936161
Au   35.933552   44.172749   58.004162
Au   35.933552   44.172749   62.072159
Au   35.933552   44.172749   66.140160
Au   35.933552   40.104752   49.868160
Au   35.933552   40.104752   53.936161
Au   35.933552   40.104752   58.004162
Au   35.933552   40.104752   62.072159
Au   35.933552   36.036751   49.868160
Au   35.933552   36.036751   53.936161
Au   35.933552   36.036751   58.004162
Au   35.933552   31.968750   49.868160
Au   35.933552   31.968750   53.936161
Au   35.933552   27.900749   49.868160
Au   31.865549   48.240749   49.868160
Au   31.865549   48.240749   53.936161
Au   31.865549   48.240749   58.004162
Au   31.865549   48.240749   62.072159
Au   31.865549   48.240749   66.140160
Au   31.865549   44.172749   49.868160
Au   31.865549   44.172749   53.936161
Au   31.865549   44.172749   58.004162
Au   31.865549   44.172749   62.072159
Au   31.865549   40.104752   49.868160
Au   31.865549   40.104752   53.936161
Au   31.865549   40.104752   58.004162
Au   31.865549   36.036751   49.868160
Au   31.865549   36.036751   53.936161
Au   31.865549   31.968750   49.868160
Au   27.797550   48.240749   49.868160
Au   27.797550   48.240749   53.936161
Au   27.797550   48.240749   58.004162
Au   27.797550   48.240749   62.072159
Au   27.797550   44.172749   49.868160
Au   27.797550   44.172749   53.936161
Au   27.797550   44.172749   58.004162
Au   27.797550   40.104752   49.868160
Au   27.797550   40.104752   53.936161
Au   27.797550   36.036751   49.868160
Au   50.171551   46.206749   49.868160
Au   50.171551   46.206749   53.936161
Au   50.171551   46.206749   58.004162
Au   50.171551   46.206749   62.072159
Au   50.171551   46.206749   66.140160
Au   50.171551   46.206749   70.208160
Au   50.171551   46.206749   74.276161
Au   54.239552   46.206749   49.868160
Au   54.239552   46.206749   53.936161
Au   54.239552   46.206749   58.004162
Au   54.239552   46.206749   62.072159
Au   54.239552   46.206749   66.140160
Au   54.239552   46.206749   70.208160
Au   54.239552   46.206749   74.276161
Au   58.307549   46.206749   49.868160
Au   58.307549   46.206749   53.936161
Au   58.307549   46.206749   58.004162
Au   58.307549   46.206749   62.072159
Au   58.307549   46.206749   66.140160
Au   58.307549   46.206749   70.208160
Au   58.307549   46.206749   74.276161
Au   62.375549   46.206749   49.868160
Au   62.375549   46.206749   53.936161
Au   62.375549   46.206749   58.004162
Au   62.375549   46.206749   62.072159
Au   62.375549   46.206749   66.140160
Au   62.375549   46.206749   70.208160
Au   66.443550   46.206749   49.868160
Au   66.443550   46.206749   53.936161
Au   66.443550   46.206749   58.004162
Au   66.443550   46.206749   62.072159
Au   66.443550   46.206749   66.140160
Au   70.511551   46.206749   49.868160
Au   70.511551   46.206749   53.936161
Au   70.511551   46.206749   58.004162
Au   70.511551   46.206749   62.072159
Au   74.579552   46.206749   49.868160
Au   74.579552   46.206749   53.936161
Au   74.579552   46.206749   58.004162
Au   50.171551   42.138748   49.868160
Au   50.171551   42.138748   53.936161
Au   50.171551   42.138748   58.004162
Au   50.171551   42.138748   62.072159
Au   50.171551   42.138748   66.140160
Au   50.171551   42.138748   70.208160
Au   50.171551   42.138748   74.276161
Au   54.239552   42.138748   49.868160
Au   54.239552   42.138748   53.936161
Au   54.239552   42.138748   58.004162
Au   54.239552   42.138748   62.072159
Au   54.239552   42.138748   66.140160
Au   54.239552   42.138748   70.208160
Au   54.239552   42.138748   74.276161
Au   58.307549   42.138748   49.868160
Au   58.307549   42.138748   53.936161
Au   58.307549   42.138748   58.004162
Au   58.307549   42.138748   62.072159
Au   58.307549   42.138748   66.140160
Au   58.307549   42.138748   70.208160
Au   62.375549   42.138748   49.868160
Au   62.375549   42.138748   53.936161
Au   62.375549   42.138748   58.004162
Au   62.375549   42.138748   62.072159
Au   62.375549   42.138748   66.140160
Au   66.443550   42.138748   49.868160
Au   66.443550   42.138748   53.936161
Au   66.443550   42.138748   58.004162
Au   66.443550   42.138748   62.072159
Au   70.511551   42.138748   49.868160
Au   70.511551   42.138748   53.936161
Au   70.511551   42.138748   58.004162
Au   74.579552   42.138748   49.868160
Au   74.579552   42.138748   53.936161
Au   50.171551   38.070751   49.868160
Au   50.171551   38.070751   53.936161
Au   50.171551   38.070751   58.004162
Au   50.171551   38.070751   62.072159
Au   50.171551   38.070751   66.140160
Au   50.171551   38.070751   70.208160
Au   50.171551   38.070751   74.276161
Au   54.239552   38.070751   49.868160
Au   54.239552   38.070751   53.936161
Au   54.239552   38.070751   58.004162
Au   54.239552   38.070751   62.072159
Au   54.239552   38.070751   66.140160
Au   54.239552   38.070751   70.208160
Au   58.307549   38.070751   49.868160
Au   58.307549   38.070751   53.936161
Au   58.307549   38.070751   58.004162
Au   58.307549   38.070751   62.072159
Au   58.307549   38.070751   66.140160
Au   62.375549   38.070751   49.868160
Au   62.375549   38.070751   53.936161
Au   62.375549   38.070751   58.004162
Au   62.375549   38.070751   62.072159
Au   66.443550   38.070751   49.868160
Au   66.443550   38.070751   53.936161
Au   66.443550   38.070751   58.004162
Au   70.511551   38.070751   49.868160
Au   70.511551   38.070751   53.936161
Au   74.579552   38.070751   49.868160
Au   50.171551   34.002750   49.868160
Au   50.171551   34.002750   53.936161
Au   50.171551   34.002750   58.004162
Au   50.171551   34.002750   62.072159
Au   50.171551   34.002750   66.140160
Au   50.171551   34.002750   70.208160
Au   54.239552   34.002750   49.868160
Au   54.239552   34.002750   53.936161
Au   54.239552   34.002750   58.004162
Au   54.239552   34.002750   62.072159
Au   54.239552   34.002750   66.140160
Au   58.307549   34.002750   49.868160
Au   58.307549   34.002750   53.936161
Au   58.307549   34.002750   58.004162
Au   58.307549   34.002750   62.072159
Au   62.375549   34.002750   49.868160
Au   62.375549   34.002750   53.936161
Au   62.375549   34.002750   58.004162
Au   66.443550   34.002750   49.868160
Au   66.443550   34.002750   53.936161
Au   70.511551   34.002750   49.868160
Au   50.171551   29.934750   49.868160
Au   50.171551   29.934750   53.936161
Au   50.171551   29.934750   58.004162
Au   50.171551   29.934750   62.072159
Au   50.171551   29.934750   66.140160
Au   54.239552   29.934750   49.868160
Au   54.239552   29.934750   53.936161
Au   54.239552   29.934750   58.004162
Au   54.239552   29.934750   62.072159
Au   58.307549   29.934750   49.868160
Au   58.307549   29.934750   53.936161
Au   58.307549   29.934750   58.004162
Au   62.375549   29.934750   49.868160
Au   62.375549   29.934750   53.936161
Au   66.443550   29.934750   49.868160
Au   50.171551   25.866751   49.868160
Au   50.171551   25.866751   53.936161
Au   50.171551   25.866751   58.004162
Au   50.171551   25.866751   62.072159
Au   54.239552   25.866751   49.868160
Au   54.239552   25.866751   53.936161
Au   54.239552   25.866751   58.004162
Au   58.307549   25.866751   49.868160
Au   58.307549   25.866751   53.936161
Au   62.375549   25.866751   49.868160
Au   52.205551   46.206749   51.902161
Au   52.205551   46.206749   55.970161
Au   52.205551   46.206749   60.038158
Au   52.205551   46.206749   64.106163
Au   52.205551   46.206749   68.174156
Au   52.205551   46.206749   72.242157
Au   56.273548   46.206749   51.902161
Au   56.273548   46.206749   55.970161
Au   56.273548   46.206749   60.038158
Au   56.273548   46.206749   64.106163
Au   56.273548   46.206749   68.174156
Au   56.273548   46.206749   72.242157
Au   60.341549   46.206749   51.902161
Au   60.341549   46.206749   55.970161
Au   60.341549   46.206749   60.038158
Au   60.341549   46.206749   64.106163
Au   60.341549   46.206749   68.174156
Au   60.341549   46.206749   72.242157
Au   64.409554   46.206749   51.902161
Au   64.409554   46.206749   55.970161
Au   64.409554   46.206749   60.038158
Au   64.409554   46.206749   64.106163
Au   64.409554   46.206749   68.174156
Au   68.477547   46.206749   51.902161
Au   68.477547   46.206749   55.970161
Au   68.477547   46.206749   60.038158
Au   68.477547   46.206749   64.106163
Au   72.545547   46.206749   51.902161
Au   72.545547   46.206749   55.970161
Au   72.545547   46.206749   60.038158
Au   52.205551   42.138748   51.902161
Au   52.205551   42.138748   55.970161
Au   52.205551   42.138748   60.038158
Au   52.205551   42.138748   64.106163
Au   52.205551   42.138748   68.174156
Au   52.205551   42.138748   72.242157
Au   56.273548   42.138748   51.902161
Au   56.273548   42.138748   55.970161
Au   56.273548   42.138748   60.038158
Au   56.273548   42.138748   64.106163
Au   56.273548   42.138748   68.174156
Au   56.273548   42.138748   72.242157
Au   60.341549   42.138748   51.902161
Au   60.341549   42.138748   55.970161
Au   60.341549   42.138748   60.038158
Au   60.341549   42.138748   64.106163
Au   60.341549   42.138748   68.174156
Au   64.409554   42.138748   51.902161
Au   64.409554   42.138748   55.970161
Au   64.409554   42.138748   60.038158
Au   64.409554   42.138748   64.106163
Au   68.477547   42.138748   51.902161
Au   68.477547   42.138748   55.970161
Au   68.477547   42.138748   60.038158
Au   72.545547   42.138748   51.902161
Au   72.545547   42.138748   55.970161
Au   52.205551   38.070751   51.902161
Au   52.205551   38.070751   55.970161
Au   52.205551   38.070751   60.038158
Au   52.205551   38.070751   64.106163
Au   52.205551   38.070751   68.174156
Au   52.205551   38.070751   72.242157
Au   56.273548   38.070751   51.902161
Au   56.273548   38.070751   55.970161
Au   56.273548   38.070751   60.038158
Au   56.273548   38.070751   64.106163
Au   56.273548   38.070751   68.174156
Au   60.341549   38.070751   51.902161
Au   60.341549   38.070751   55.970161
Au   60.341549   38.070751   60.038158
Au   60.341549   38.070751   64.106163
Au   64.409554   38.070751   51.902161
Au   64.409554   38.070751   55.970161
Au   64.409554   38.070751   60.038158
Au   68.477547   38.070751   51.902161
Au   68.477547   38.070751   55.970161
Au   72.545547   38.070751   51.902161
Au   52.205551   34.002750   51.902161
Au   52.205551   34.002750   55.970161
Au   52.205551   34.002750   60.038158
Au   52.205551   34.002750   64.106163
Au   52.205551   34.002750   68.174156
Au   56.273548   34.002750   51.902161
Au   56.273548   34.002750   55.970161
Au   56.273548   34.002750   60.038158
Au   56.273548   34.002750   64.106163
Au   60.341549   34.002750   51.902161
Au   60.341549   34.002750   55.970161
Au   60.341549   34.002750   60.038158
Au   64.409554   34.002750   51.902161
Au   64.409554   34.002750   55.970161
Au   68.477547   34.002750   51.902161
Au   52.205551   29.934750   51.902161
Au   52.205551   29.934750   55.970161
Au   52.205551   29.934750   60.038158
Au   52.205551   29.934750   64.106163
Au   56.273548   29.934750   51.902161
Au   56.273548   29.934750   55.970161
Au   56.273548   29.934750   60.038158
Au   60.341549   29.934750   51.902161
Au   60.341549   29.934750   55.970161
Au   64.409554   29.934750   51.902161
Au   52.205551   25.866751   51.902161
Au   52.205551   25.866751   55.970161
Au   52.205551   25.866751   60.038158
Au   56.273548   25.866751   51.902161
Au   56.273548   25.866751   55.970161
Au   60.341549   25.866751   51.902161
Au   50.171551   48.240749   51.902161
Au   50.171551   48.240749   55.970161
Au   50.171551   48.240749   60.038158
Au   50.171551   48.240749   64.106163
Au   50.171551   48.240749   68.174156
Au   50.171551   48.240749   72.242157
Au   54.239552   48.240749   51.902161
Au   54.239552   48.240749   55.970161
Au   54.239552   48.240749   60.038158
Au   54.239552   48.240749   64.106163
Au   54.239552   48.240749   68.174156
Au   54.239552   48.240749   72.242157
Au   58.307549   48.240749   51.902161
Au   58.307549   48.240749   55.970161
Au   58.307549   48.240749   60.038158
Au   58.307549   48.240749   64.106163
Au   58.307549   48.240749   68.174156
Au   58.307549   48.240749   72.242157
Au   62.375549   48.240749   51.902161
Au   62.375549   48.240749   55.970161
Au   62.375549   48.240749   60.038158
Au   62.375549   48.240749   64.106163
Au   62.375549   48.240749   68.174156
Au   62.375549   48.240749   72.242157
Au   66.443550   48.240749   51.902161
Au   66.443550   48.240749   55.970161
Au   66.443550   48.240749   60.038158
Au   66.443550   48.240749   64.106163
Au   66.443550   48.240749   68.174156
Au   70.511551   48.240749   51.902161
Au   70.511551   48.240749   55.970161
Au   70.511551   48.240749   60.038158
Au   70.511551   48.240749   64.106163
Au   74.579552   48.240749   51.902161
Au   74.579552   48.240749   55.970161
Au   74.579552   48.240749   60.038158
Au   50.171551   44.172749   51.902161
Au   50.171551   44.172749   55.970161
Au   50.171551   44.172749   60.038158
Au   50.171551   44.172749   64.106163
Au   50.171551   44.172749   68.174156
Au   50.171551   44.172749   72.242157
Au   54.239552   44.172749   51.902161
Au   54.239552   44.172749   55.970161
Au   54.239552   44.172749   60.038158
Au   54.239552   44.172749   64.106163
Au   54.239552   44.172749   68.174156
Au   54.239552   44.172749   72.242157
Au   58.307549   44.172749   51.902161
Au   58.307549   44.172749   55.970161
Au   58.307549   44.172749   60.038158
Au   58.307549   44.172749   64.106163
Au   58.307549   44.172749   68.174156
Au   58.307549   44.172749   72.242157
Au   62.375549   44.172749   51.902161
Au   62.375549   44.172749   55.970161
Au   62.375549   44.172749   60.038158
Au   62.375549   44.172749   64.106163
Au   62.375549   44.172749   68.174156
Au   66.443550   44.172749   51.902161
Au   66.443550   44.172749   55.970161
Au   66.443550   44.172749   60.038158
Au   66.443550   44.172749   64.106163
Au   70.511551   44.172749   51.902161
Au   70.511551   44.172749   55.970161
Au   70.511551   44.172749   60.038158
Au   74.579552   44.172749   51.902161
Au   74.579552   44.172749   55.970161
Au   50.171551   40.104752   51.902161
Au   50.171551   40.104752   55.970161
Au   50.171551   40.104752   60.038158
Au   50.171551   40.104752   64.106163
Au   50.171551   40.104752   68.174156
Au   50.171551   40.104752   72.242157
Au   54.239552   40.104752   51.902161
Au   54.239552   40.104752   55.970161
Au   54.239552   40.104752   60.038158
Au   54.239552   40.104752   64.106163
Au   54.239552   40.104752   68.174156
Au   54.239552   40.104752   72.242157
Au   58.307549   40.104752   51.902161
Au   58.307549   40.104752   55.970161
Au   58.307549   40.104752   60.038158
Au   58.307549   40.104752   64.106163
Au   58.307549   40.104752   68.174156
Au   62.375549   40.104752   51.902161
Au   62.375549   40.104752   55.970161
Au   62.375549   40.104752   60.038158
Au   62.375549   40.104752   64.106163
Au   66.443550   40.104752   51.902161
Au   66.443550   40.104752   55.970161
Au   66.443550   40.104752   60.038158
Au   70.511551   40.104752   51.902161
Au   70.511551   40.104752   55.970161
Au   74.579552   40.104752   51.902161
Au   50.171551   36.036751   51.902161
Au   50.171551   36.036751   55.970161
Au   50.171551   36.036751   60.038158
Au   50.171551   36.036751   64.106163
Au   50.171551   36.036751   68.174156
Au   50.171551   36.036751   72.242157
Au   54.239552   36.036751   51.902161
Au   54.239552   36.036751   55.970161
Au   54.239552   36.036751   60.038158
Au   54.239552   36.036751   64.106163
Au   54.239552   36.036751   68.174156
Au   58.307549   36.036751   51.902161
Au   58.307549   36.036751   55.970161
Au   58.307549   36.036751   60.038158
Au   58.307549   36.036751   64.106163
Au   62.375549   36.036751   51.902161
Au   62.375549   36.036751   55.970161
Au   62.375549   36.036751   60.038158
Au   66.443550   36.036751   51.902161
Au   66.443550   36.036751   55.970161
Au   70.511551   36.036751   51.902161
Au   50.171551   31.968750   51.902161
Au   50.171551   31.968750   55.970161
Au   50.171551   31.968750   60.038158
Au   50.171551   31.968750   64.106163
Au   50.171551   31.968750   68.174156
Au   54.239552   31.968750   51.902161
Au   54.239552   31.968750   55.970161
Au   54.239552   31.968750   60.038158
Au   54.239552   31.968750   64.106163
Au   58.307549   31.968750   51.902161
Au   58.307549   31.968750   55.970161
Au   58.307549   31.968750   60.038158
Au   62.375549   31.968750   51.902161
Au   62.375549   31.968750   55.970161
Au   66.443550   31.968750   51.902161
Au   50.171551   27.900749   51.902161
Au   50.171551   27.900749   55.970161
Au   50.171551   27.900749   60.038158
Au   50.171551   27.900749   64.106163
Au   54.239552   27.900749   51.902161
Au   54.239552   27.900749   55.970161
Au   54.239552   27.900749   60.038158
Au   58.307549   27.900749   51.902161
Au   58.307549   27.900749   55.970161
Au   62.375549   27.900749   51.902161
Au   52.205551   48.240749   49.868160
Au   52.205551   48.240749   53.936161
Au   52.205551   48.240749   58.004162
Au   52.205551   48.240749   62.072159
Au   52.205551   48.240749   66.140160
Au   52.205551   48.240749   70.208160
Au   52.205551   48.240749   74.276161
Au   56.273548   48.240749   49.868160
Au   56.273548   48.240749   53.936161
Au   56.273548   48.240749   58.004162
Au   56.273548   48.240749   62.072159
Au   56.273548   48.240749   66.140160
Au   56.273548   48.240749   70.208160
Au   56.273548   48.240749   74.276161
Au   60.341549   48.240749   49.868160
Au   60.341549   48.240749   53.936161
Au   60.341549   48.240749   58.004162
Au   60.341549   48.240749   62.072159
Au   60.341549   48.240749   66.140160
Au   60.341549   48.240749   70.208160
Au   60.341549   48.240749   74.276161
Au   64.409554   48.240749   49.868160
Au   64.409554   48.240749   53.936161
Au   64.409554   48.240749   58.004162
Au   64.409554   48.240749   62.072159
Au   64.409554   48.240749   66.140160
Au   64.409554   48.240749   70.208160
Au   68.477547   48.240749   49.868160
Au   68.477547   48.240749   53.936161
Au   68.477547   48.240749   58.004162
Au   68.477547   48.240749   62.072159
Au   68.477547   48.240749   66.140160
Au   72.545547   48.240749   49.868160
Au   72.545547   48.240749   53.936161
Au   72.545547   48.240749   58.004162
Au   72.545547   48.240749   62.072159
Au   52.205551   44.172749   49.868160
Au   52.205551   44.172749   53.936161
Au   52.205551   44.172749   58.004162
Au   52.205551   44.172749   62.072159
Au   52.205551   44.172749   66.140160
Au   52.205551   44.172749   70.208160
Au   52.205551   44.172749   74.276161
Au   56.273548   44.172749   49.868160
Au   56.273548   44.172749   53.936161
Au   56.273548   44.172749   58.004162
Au   56.273548   44.172749   62.072159
Au   56.273548   44.172749   66.140160
Au   56.273548   44.172749   70.208160
Au   56.273548   44.172749   74.276161
Au   60.341549   44.172749   49.868160
Au   60.341549   44.172749   53.936161
Au   60.341549   44.172749   58.004162
Au   60.341549   44.172749   62.072159
Au   60.341549   44.172749   66.140160
Au   60.341549   44.172749   70.208160
Au   64.409554   44.172749   49.868160
Au   64.409554   44.172749   53.936161
Au   64.409554   44.172749   58.004162
Au   64.409554   44.172749   62.072159
Au   64.409554   44.172749   66.140160
Au   68.477547   44.172749   49.868160
Au   68.477547   44.172749   53.936161
Au   68.477547   44.172749   58.004162
Au   68.477547   44.172749   62.072159
Au   72.545547   44.172749   49.868160
Au   72.545547   44.172749   53.936161
Au   72.545547   44.172749   58.004162
Au   52.205551   40.104752   49.868160
Au   52.205551   40.104752   53.936161
Au   52.205551   40.104752   58.004162
Au   52.205551   40.104752   62.072159
Au   52.205551   40.104752   66.140160
Au   52.205551   40.104752   70.208160
Au   52.205551   40.104752   74.276161
Au   56.273548   40.104752   49.868160
Au   56.273548   40.104752   53.936161
Au   56.273548   40.104752   58.004162
Au   56.273548   40.104752   62.072159
Au   56.273548   40.104752   66.140160
Au   56.273548   40.104752   70.208160
Au   60.341549   40.104752   49.868160
Au   60.341549   40.104752   53.936161
Au   60.341549   40.104752   58.004162
Au   60.341549   40.104752   62.072159
Au   60.341549   40.104752   66.140160
Au   64.409554   40.104752   49.868160
Au   64.409554   40.104752   53.936161
Au   64.409554   40.104752   58.004162
Au   64.409554   40.104752   62.072159
Au   68.477547   40.104752   49.868160
Au   68.477547   40.104752   53.936161
Au   68.477547   40.104752   58.004162
Au   72.545547   40.104752   49.868160
Au   72.545547   40.104752   53.936161
Au   52.205551   36.036751   49.868160
Au   52.205551   36.036751   53.936161
Au   52.205551   36.036751   58.004162
Au   52.205551   36.036751   62.072159
Au   52.205551   36.036751   66.140160
Au   52.205551   36.036751   70.208160
Au   56.273548   36.036751   49.868160
Au   56.273548   36.036751   53.936161
Au   56.273548   36.036751   58.004162
Au   56.273548   36.036751   62.072159
Au   56.273548   36.036751   66.140160
Au   60.341549   36.036751   49.868160
Au   60.341549   36.036751   53.936161
Au   60.341549   36.036751   58.004162
Au   60.341549   36.036751   62.072159
Au   64.409554   36.036751   49.868160
Au   64.409554   36.036751   53.936161
Au   64.409554   36.036751   58.004162
Au   68.477547   36.036751   49.868160
Au   68.477547   36.036751   53.936161
Au   72.545547   36.036751   49.868160
Au   52.205551   31.968750   49.868160
Au   52.205551   31.968750   53.936161
Au   52.205551   31.968750   58.004162
Au   52.205551   31.968750   62.072159
Au   52.205551   31.968750   66.140160
Au   56.273548   31.968750   49.868160
Au   56.273548   31.968750   53.936161
Au   56.273548   31.968750   58.004162
Au   56.273548   31.968750   62.072159
Au   60.341549   31.968750   49.868160
Au   60.341549   31.968750   53.936161
Au   60.341549   31.968750   58.004162
Au   64.409554   31.968750   49.868160
Au   64.409554   31.968750   53.936161
Au   68.477547   31.968750   49.868160
Au   52.205551   27.900749   49.868160
Au   52.205551   27.900749   53.936161
Au   52.205551   27.900749   58.004162
Au   52.205551   27.900749   62.072159
Au   56.273548   27.900749   49.868160
Au   56.273548   27.900749   53.936161
Au   56.273548   27.900749   58.004162
Au   60.341549   27.900749   49.868160
Au   60.341549   27.900749   53.936161
Au   64.409554   27.900749   49.868160
Au   50.171551   50.274750   49.868160
Au   50.171551   50.274750   53.936161
Au   50.171551   50.274750   58.004162
Au   50.171551   50.274750   62.072159
Au   50.171551   50.274750   66.140160
Au   50.171551   50.274750   70.208160
Au   50.171551   50.274750   74.276161
Au   46.103550   50.274750   45.800159
Au   46.103550   50.274750   41.732159
Au   46.103550   50.274750   37.664162
Au   46.103550   50.274750   33.596161
Au   46.103550   50.274750   29.528160
Au   46.103550   50.274750   25.460159
Au   46.103550   46.206749   45.800159
Au   46.103550   46.206749   41.732159
Au   46.103550   46.206749   37.664162
Au   46.103550   46.206749   33.596161
Au   46.103550   46.206749   29.528160
Au   46.103550   46.206749   25.460159
Au   46.103550   42.138748   45.800159
Au   46.103550   42.138748   41.732159
Au   46.103550   42.138748   37.664162
Au   46.103550   42.138748   33.596161
Au   46.103550   42.138748   29.528160
Au   46.103550   42.138748   25.460159
Au   46.103550   38.070751   45.800159
Au   46.103550   38.070751   41.732159
Au   46.103550   38.070751   37.664162
Au   46.103550   38.070751   33.596161
Au   46.103550   38.070751   29.528160
Au   46.103550   34.002750   45.800159
Au   46.103550   34.002750   41.732159
Au   46.103550   34.002750   37.664162
Au   46.103550   34.002750   33.596161
Au   46.103550   29.934750   45.800159
Au   46.103550   29.934750   41.732159
Au   46.103550   29.934750   37.664162
Au   46.103550   25.866751   45.800159
Au   46.103550   25.866751   41.732159
Au   42.035549   50.274750   45.800159
Au   42.035549   50.274750   41.732159
Au   42.035549   50.274750   37.664162
Au   42.035549   50.274750   33.596161
Au   42.035549   50.274750   29.528160
Au   42.035549   50.274750   25.460159
Au   42.035549   46.206749   45.800159
Au   42.035549   46.206749   41.732159
Au   42.035549   46.206749   37.664162
Au   42.035549   46.206749   33.596161
Au   42.035549   46.206749   29.528160
Au   42.035549   46.206749   25.460159
Au   42.035549   42.138748   45.800159
Au   42.035549   42.138748   41.732159
Au   42.035549   42.138748   37.664162
Au   42.035549   42.138748   33.596161
Au   42.035549   42.138748   29.528160
Au   42.035549   38.070751   45.800159
Au   42.035549   38.070751   41.732159
Au   42.035549   38.070751   37.664162
Au   42.035549   38.070751   33.596161
Au   42.035549   34.002750   45.800159
Au   42.035549   34.002750   41.732159
Au   42.035549   34.002750   37.664162
Au   42.035549   29.934750   45.800159
Au   42.035549   29.934750   41.732159
Au   42.035549   25.866751   45.800159
Au   37.967548   50.274750   45.800159
Au   37.967548   50.274750   41.732159
Au   37.967548   50.274750   37.664162
Au   37.967548   50.274750   33.596161
Au   37.967548   50.274750   29.528160
Au   37.967548   50.274750   25.460159
Au   37.967548   46.206749   45.800159
Au   37.967548   46.206749   41.732159
Au   37.967548   46.206749   37.664162
Au   37.967548   46.206749   33.596161
Au   37.967548   46.206749   29.528160
Au   37.967548   42.138748   45.800159
Au   37.967548   42.138748   41.732159
Au   37.967548   42.138748   37.664162
Au   37.967548   42.138748   33.596161
Au   37.967548   38.070751   45.800159
Au   37.967548   38.070751   41.732159
Au   37.967548   38.070751   37.664162
Au   37.967548   34.002750   45.800159
Au   37.967548   34.002750   41.732159
Au   37.967548   29.934750   45.800159
Au   33.899551   50.274750   45.800159
Au   33.899551   50.274750   41.732159
Au   33.899551   50.274750   37.664162
Au   33.899551   50.274750   33.596161
Au   33.899551   50.274750   29.528160
Au   33.899551   46.206749   45.800159
Au   33.899551   46.206749   41.732159
Au   33.899551   46.206749   37.664162
Au   33.899551   46.206749   33.596161
Au   33.899551   42.138748   45.800159
Au   33.899551   42.138748   41.732159
Au   33.899551   42.138748   37.664162
Au   33.899551   38.070751   45.800159
Au   33.899551   38.070751   41.732159
Au   33.899551   34.002750   45.800159
Au   29.831551   50.274750   45.800159
Au   29.831551   50.274750   41.732159
Au   29.831551   50.274750   37.664162
Au   29.831551   50.274750   33.596161
Au   29.831551   46.206749   45.800159
Au   29.831551   46.206749   41.732159
Au   29.831551   46.206749   37.664162
Au   29.831551   42.138748   45.800159
Au   29.831551   42.138748   41.732159
Au   29.831551   38.070751   45.800159
Au   25.763550   50.274750   45.800159
Au   25.763550   50.274750   41.732159
Au   25.763550   50.274750   37.664162
Au   25.763550   46.206749   45.800159
Au   25.763550   46.206749   41.732159
Au   25.763550   42.138748   45.800159
Au   46.103550   48.240749   47.834160
Au   46.103550   48.240749   43.766159
Au   46.103550   48.240749   39.698158
Au   46.103550   48.240749   35.630161
Au   46.103550   48.240749   31.562160
Au   46.103550   48.240749   27.494160
Au   46.103550   44.172749   47.834160
Au   46.103550   44.172749   43.766159
Au   46.103550   44.172749   39.698158
Au   46.103550   44.172749   35.630161
Au   46.103550   44.172749   31.562160
Au   46.103550   44.172749   27.494160
Au   46.103550   40.104752   47.834160
Au   46.103550   40.104752   43.766159
Au   46.103550   40.104752   39.698158
Au   46.103550   40.104752   35.630161
Au   46.103550   40.104752   31.562160
Au   46.103550   40.104752   27.494160
Au   46.103550   36.036751   47.834160
Au   46.103550   36.036751   43.766159
Au   46.103550   36.036751   39.698158
Au   46.103550   36.036751   35.630161
Au   46.103550   36.036751   31.562160
Au   46.103550   31.968750   47.834160
Au   46.103550   31.968750   43.766159
Au   46.103550   31.968750   39.698158
Au   46.103550   31.968750   35.630161
Au   46.103550   27.900749   47.834160
Au   46.103550   27.900749   43.766159
Au   46.103550   27.900749   39.698158
Au   42.035549   48.240749   47.834160
Au   42.035549   48.240749   43.766159
Au   42.035549   48.240749   39.698158
Au   42.035549   48.240749   35.630161
Au   42.035549   48.240749   31.562160
Au   42.035549   48.240749   27.494160
Au   42.035549   44.172749   47.834160
Au   42.035549   44.172749   43.766159
Au   42.035549   44.172749   39.698158
Au   42.035549   44.172749   35.630161
Au   42.035549   44.172749   31.562160
Au   42.035549   44.172749   27.494160
Au   42.035549   40.104752   47.834160
Au   42.035549   40.104752   43.766159
Au   42.035549   40.104752   39.698158
Au   42.035549   40.104752   35.630161
Au   42.035549   40.104752   31.562160
Au   42.035549   36.036751   47.834160
Au   42.035549   36.036751   43.766159
Au   42.035549   36.036751   39.698158
Au   42.035549   36.036751   35.630161
Au   42.035549   31.968750   47.834160
Au   42.035549   31.968750   43.766159
Au   42.035549   31.968750   39.698158
Au   42.035549   27.900749   47.834160
Au   42.035549   27.900749   43.766159
Au   37.967548   48.240749   47.834160
Au   37.967548   48.240749   43.766159
Au   37.967548   48.240749   39.698158
Au   37.967548   48.240749   35.630161
Au   37.967548   48.240749   31.562160
Au   37.967548   48.240749   27.494160
Au   37.967548   44.172749   47.834160
Au   37.967548   44.172749   43.766159
Au   37.967548   44.172749   39.698158
Au   37.967548   44.172749   35.630161
Au   37.967548   44.172749   31.562160
Au   37.967548   40.104752   47.834160
Au   37.967548   40.104752   43.766159
Au   37.967548   40.104752   39.698158
Au   37.967548   40.104752   35.630161
Au   37.967548   36.036751   47.834160
Au   37.967548   36.036751   43.766159
Au   37.967548   36.036751   39.698158
Au   37.967548   31.968750   47.834160
Au   37.967548   31.968750   43.766159
Au   37.967548   27.900749   47.834160
Au   33.899551   48.240749   47.834160
Au   33.899551   48.240749   43.766159
Au   33.899551   48.240749   39.698158
Au   33.899551   48.240749   35.630161
Au   33.899551   48.240749   31.562160
Au   33.899551   44.172749   47.834160
Au   33.899551   44.172749   43.766159
Au   33.899551   44.172749   39.698158
Au   33.899551   44.172749   35.630161
Au   33.899551   40.104752   47.834160
Au   33.899551   40.104752   43.766159
Au   33.899551   40.104752   39.698158
Au   33.899551   36.036751   47.834160
Au   33.899551   36.036751   43.766159
Au   33.899551   31.968750   47.834160
Au   29.831551   48.240749   47.834160
Au   29.831551   48.240749   43.766159
Au   29.831551   48.240749   39.698158
Au   29.831551   48.240749   35.630161
Au   29.831551   44.172749   47.834160
Au   29.831551   44.172749   43.766159
Au   29.831551   44.172749   39.698158
Au   29.831551   40.104752   47.834160
Au   29.831551   40.104752   43.766159
Au   29.831551   36.036751   47.834160
Au   25.763550   48.240749   47.834160
Au   25.763550   48.240749   43.766159
Au   25.763550   48.240749   39.698158
Au   25.763550   44.172749   47.834160
Au   25.763550   44.172749   43.766159
Au   25.763550   40.104752   47.834160
Au   48.137550   50.274750   47.834160
Au   48.137550   50.274750   43.766159
Au   48.137550   50.274750   39.698158
Au   48.137550   50.274750   35.630161
Au   48.137550   50.274750   31.562160
Au   48.137550   50.274750   27.494160
Au   48.137550   46.206749   47.834160
Au   48.137550   46.206749   43.766159
Au   48.137550   46.206749   39.698158
Au   48.137550   46.206749   35.630161
Au   48.137550   46.206749   31.562160
Au   48.137550   46.206749   27.494160
Au   48.137550   42.138748   47.834160
Au   48.137550   42.138748   43.766159
Au   48.137550   42.138748   39.698158
Au   48.137550   42.138748   35.630161
Au   48.137550   42.138748   31.562160
Au   48.137550   42.138748   27.494160
Au   48.137550   38.070751   47.834160
Au   48.137550   38.070751   43.766159
Au   48.137550   38.070751   39.698158
Au   48.137550   38.070751   35.630161
Au   48.137550   38.070751   31.562160
Au   48.137550   38.070751   27.494160
Au   48.137550   34.002750   47.834160
Au   48.137550   34.002750   43.766159
Au   48.137550   34.002750   39.698158
Au   48.137550   34.002750   35.630161
Au   48.137550   34.002750   31.562160
Au   48.137550   29.934750   47.834160
Au   48.137550   29.934750   43.766159
Au   48.137550   29.934750   39.698158
Au   48.137550   29.934750   35.630161
Au   48.137550   25.866751   47.834160
Au   48.137550   25.866751   43.766159
Au   48.137550   25.866751   39.698158
Au   44.069550   50.274750   47.834160
Au   44.069550   50.274750   43.766159
Au   44.069550   50.274750   39.698158
Au   44.069550   50.274750   35.630161
Au   44.069550   50.274750   31.562160
Au   44.069550   50.274750   27.494160
Au   44.069550   46.206749   47.834160
Au   44.069550   46.206749   43.766159
Au   44.069550   46.206749   39.698158
Au   44.069550   46.206749   35.630161
Au   44.069550   46.206749   31.562160
Au   44.069550   46.206749   27.494160
Au   44.069550   42.138748   47.834160
Au   44.069550   42.138748   43.766159
Au   44.069550   42.138748   39.698158
Au   44.069550   42.138748   35.630161
Au   44.069550   42.138748   31.562160
Au   44.069550   42.138748   27.494160
Au   44.069550   38.070751   47.834160
Au   44.069550   38.070751   43.766159
Au   44.069550   38.070751   39.698158
Au   44.069550   38.070751   35.630161
Au   44.069550   38.070751   31.562160
Au   44.069550   34.002750   47.834160
Au   44.069550   34.002750   43.766159
Au   44.069550   34.002750   39.698158
Au   44.069550   34.002750   35.630161
Au   44.069550   29.934750   47.834160
Au   44.069550   29.934750   43.766159
Au   44.069550   29.934750   39.698158
Au   44.069550   25.866751   47.834160
Au   44.069550   25.866751   43.766159
Au   40.001549   50.274750   47.834160
Au   40.001549   50.274750   43.766159
Au   40.001549   50.274750   39.698158
Au   40.001549   50.274750   35.630161
Au   40.001549   50.274750   31.562160
Au   40.001549   50.274750   27.494160
Au   40.001549   46.206749   47.834160
Au   40.001549   46.206749   43.766159
Au   40.001549   46.206749   39.698158
Au   40.001549   46.206749   35.630161
Au   40.001549   46.206749   31.562160
Au   40.001549   46.206749   27.494160
Au   40.001549   42.138748   47.834160
Au   40.001549   42.138748   43.766159
Au   40.001549   42.138748   39.698158
Au   40.001549   42.138748   35.630161
Au   40.001549   42.138748   31.562160
Au   40.001549   38.070751   47.834160
Au   40.001549   38.070751   43.766159
Au   40.001549   38.070751   39.698158
Au   40.001549   38.070751   35.630161
Au   40.001549   34.002750   47.834160
Au   40.001549   34.002750   43.766159
Au   40.001549   34.002750   39.698158
Au   40.001549   29.934750   47.834160
Au   40.001549   29.934750   43.766159
Au   40.001549   25.866751   47.834160
Au   35.933552   50.274750   47.834160
Au   35.933552   50.274750   43.766159
Au   35.933552   50.274750   39.698158
Au   35.933552   50.274750   35.630161
Au   35.933552   50.274750   31.562160
Au   35.933552   50.274750   27.494160
Au   35.933552   46.206749   47.834160
Au   35.933552   46.206749   43.766159
Au   35.933552   46.206749   39.698158
Au   35.933552   46.206749   35.630161
Au   35.933552   46.206749   31.562160
Au   35.933552   42.138748   47.834160
Au   35.933552   42.138748   43.766159
Au   35.933552   42.138748   39.698158
Au   35.933552   42.138748   35.630161
Au   35.933552   38.070751   47.834160
Au   35.933552   38.070751   43.766159
Au   35.933552   38.070751   39.698158
Au   35.933552   34.002750   47.834160
Au   35.933552   34.002750   43.766159
Au   35.933552   29.934750   47.834160
Au   31.865549   50.274750   47.834160
Au   31.865549   50.274750   43.766159
Au   31.865549   50.274750   39.698158
Au   31.865549   50.274750   35.630161
Au   31.865549   50.274750   31.562160
Au   31.865549   46.206749   47.834160
Au   31.865549   46.206749   43.766159
Au   31.865549   46.206749   39.698158
Au   31.865549   46.206749   35.630161
Au   31.865549   42.138748   47.834160
Au   31.865549   42.138748   43.766159
Au   31.865549   42.138748   39.698158
Au   31.865549   38.070751   47.834160
Au   31.865549   38.070751   43.766159
Au   31.865549   34.002750   47.834160
Au   27.797550   50.274750   47.834160
Au   27.797550   50.274750   43.766159
Au   27.797550   50.274750   39.698158
Au   27.797550   50.274750   35.630161
Au   27.797550   46.206749   47.834160
Au   27.797550   46.206749   43.766159
Au   27.797550   46.206749   39.698158
Au   27.797550   42.138748   47.834160
Au   27.797550   42.138748   43.766159
Au   27.797550   38.070751   47.834160
Au   48.137550   48.240749   45.800159
Au   48.137550   48.240749   41.732159
Au   48.137550   48.240749   37.664162
Au   48.137550   48.240749   33.596161
Au   48.137550   48.240749   29.528160
Au   48.137550   48.240749   25.460159
Au   48.137550   44.172749   45.800159
Au   48.137550   44.172749   41.732159
Au   48.137550   44.172749   37.664162
Au   48.137550   44.172749   33.596161
Au   48.137550   44.172749   29.528160
Au   48.137550   44.172749   25.460159
Au   48.137550   40.104752   45.800159
Au   48.137550   40.104752   41.732159
Au   48.137550   40.104752   37.664162
Au   48.137550   40.104752   33.596161
Au   48.137550   40.104752   29.528160
Au   48.137550   40.104752   25.460159
Au   48.137550   36.036751   45.800159
Au   48.137550   36.036751   41.732159
Au   48.137550   36.036751   37.664162
Au   48.137550   36.036751   33.596161
Au   48.137550   36.036751   29.528160
Au   48.137550   31.968750   45.800159
Au   48.137550   31.968750   41.732159
Au   48.137550   31.968750   37.664162
Au   48.137550   31.968750   33.596161
Au   48.137550   27.900749   45.800159
Au   48.137550   27.900749   41.732159
Au   48.137550   27.900749   37.664162
Au   44.069550   48.240749   45.800159
Au   44.069550   48.240749   41.732159
Au   44.069550   48.240749   37.664162
Au   44.069550   48.240749   33.596161
Au   44.069550   48.240749   29.528160
Au   44.069550   48.240749   25.460159
Au   44.069550   44.172749   45.800159
Au   44.069550   44.172749   41.732159
Au   44.069550   44.172749   37.664162
Au   44.069550   44.172749   33.596161
Au   44.069550   44.172749   29.528160
Au   44.069550   44.172749   25.460159
Au   44.069550   40.104752   45.800159
Au   44.069550   40.104752   41.732159
Au   44.069550   40.104752   37.664162
Au   44.069550   40.104752   33.596161
Au   44.069550   40.104752   29.528160
Au   44.069550   36.036751   45.800159
Au   44.069550   36.036751   41.732159
Au   44.069550   36.036751   37.664162
Au   44.069550   36.036751   33.596161
Au   44.069550   31.968750   45.800159
Au   44.069550   31.968750   41.732159
Au   44.069550   31.968750   37.664162
Au   44.069550   27.900749   45.800159
Au   44.069550   27.900749   41.732159
Au   40.001549   48.240749   45.800159
Au   40.001549   48.240749   41.732159
Au   40.001549   48.240749   37.664162
Au   40.001549   48.240749   33.596161
Au   40.001549   48.240749   29.528160
Au   40.001549   48.240749   25.460159
Au   40.001549   44.172749   45.800159
Au   40.001549   44.172749   41.732159
Au   40.001549   44.172749   37.664162
Au   40.001549   44.172749   33.596161
Au   40.001549   44.172749   29.528160
Au   40.001549   40.104752   45.800159
Au   40.001549   40.104752   41.732159
Au   40.001549   40.104752   37.664162
Au   40.001549   40.104752   33.596161
Au   40.001549   36.036751   45.800159
Au   40.001549   36.036751   41.732159
Au   40.001549   36.036751   37.664162
Au   40.001549   31.968750   45.800159
Au   40.001549   31.968750   41.732159
Au   40.001549   27.900749   45.800159
Au   35.933552   48.240749   45.800159
Au   35.933552   48.240749   41.732159
Au   35.933552   48.240749   37.664162
Au   35.933552   48.240749   33.596161
Au   35.933552   48.240749   29.528160
Au   35.933552   44.172749   45.800159
Au   35.933552   44.172749   41.732159
Au   35.933552   44.172749   37.664162
Au   35.933552   44.172749   33.596161
Au   35.933552   40.104752   45.800159
Au   35.933552   40.104752   41.732159
Au   35.933552   40.104752   37.664162
Au   35.933552   36.036751   45.800159
Au   35.933552   36.036751   41.732159
Au   35.933552   31.968750   45.800159
Au   31.865549   48.240749   45.800159
Au   31.865549   48.240749   41.732159
Au   31.865549   48.240749   37.664162
Au   31.865549   48.240749   33.596161
Au   31.865549   44.172749   45.800159
Au   31.865549   44.172749   41.732159
Au   31.865549   44.172749   37.664162
Au   31.865549   40.104752   45.800159
Au   31.865549   40.104752   41.732159
Au   31.865549   36.036751   45.800159
Au   27.797550   48.240749   45.800159
Au   27.797550   48.240749   41.732159
Au   27.797550   48.240749   37.664162
Au   27.797550   44.172749   45.800159
Au   27.797550   44.172749   41.732159
Au   27.797550   40.104752   45.800159
Au   50.171551   46.206749   45.800159
Au   50.171551   46.206749   41.732159
Au   50.171551   46.206749   37.664162
Au   50.171551   46.206749   33.596161
Au   50.171551   46.206749   29.528160
Au   50.171551   46.206749   25.460159
Au   54.239552   46.206749   45.800159
Au   54.239552   46.206749   41.732159
Au   54.239552   46.206749   37.664162
Au   54.239552   46.206749   33.596161
Au   54.239552   46.206749   29.528160
Au   54.239552   46.206749   25.460159
Au   58.307549   46.206749   45.800159
Au   58.307549   46.206749   41.732159
Au   58.307549   46.206749   37.664162
Au   58.307549   46.206749   33.596161
Au   58.307549   46.206749   29.528160
Au   58.307549   46.206749   25.460159
Au   62.375549   46.206749   45.800159
Au   62.375549   46.206749   41.732159
Au   62.375549   46.206749   37.664162
Au   62.375549   46.206749   33.596161
Au   62.375549   46.206749   29.528160
Au   66.443550   46.206749   45.800159
Au   66.443550   46.206749   41.732159
Au   66.443550   46.206749   37.664162
Au   66.443550   46.206749   33.596161
Au   70.511551   46.206749   45.800159
Au   70.511551   46.206749   41.732159
Au   70.511551   46.206749   37.664162
Au   74.579552   46.206749   45.800159
Au   74.579552   46.206749   41.732159
Au   50.171551   42.138748   45.800159
Au   50.171551   42.138748   41.732159
Au   50.171551   42.138748   37.664162
Au   50.171551   42.138748   33.596161
Au   50.171551   42.138748   29.528160
Au   50.171551   42.138748   25.460159
Au   54.239552   42.138748   45.800159
Au   54.239552   42.138748   41.732159
Au   54.239552   42.138748   37.664162
Au   54.239552   42.138748   33.596161
Au   54.239552   42.138748   29.528160
Au   54.239552   42.138748   25.460159
Au   58.307549   42.138748   45.800159
Au   58.307549   42.138748   41.732159
Au   58.307549   42.138748   37.664162
Au   58.307549   42.138748   33.596161
Au   58.307549   42.138748   29.528160
Au   62.375549   42.138748   45.800159
Au   62.375549   42.138748   41.732159
Au   62.375549   42.138748   37.664162
Au   62.375549   42.138748   33.596161
Au   66.443550   42.138748   45.800159
Au   66.443550   42.138748   41.732159
Au   66.443550   42.138748   37.664162
Au   70.511551   42.138748   45.800159
Au   70.511551   42.138748   41.732159
Au   74.579552   42.138748   45.800159
Au   50.171551   38.070751   45.800159
Au   50.171551   38.070751   41.732159
Au   50.171551   38.070751   37.664162
Au   50.171551   38.070751   33.596161
Au   50.171551   38.070751   29.528160
Au   50.171551   38.070751   25.460159
Au   54.239552   38.070751   45.800159
Au   54.239552   38.070751   41.732159
Au   54.239552   38.070751   37.664162
Au   54.239552   38.070751   33.596161
Au   54.239552   38.070751   29.528160
Au   58.307549   38.070751   45.800159
Au   58.307549   38.070751   41.732159
Au   58.307549   38.070751   37.664162
Au   58.307549   38.070751   33.596161
Au   62.375549   38.070751   45.800159
Au   62.375549   38.070751   41.732159
Au   62.375549   38.070751   37.664162
Au   66.443550   38.070751   45.800159
Au   66.443550   38.070751   41.732159
Au   70.511551   38.070751   45.800159
Au   50.171551   34.002750   45.800159
Au   50.171551   34.002750   41.732159
Au   50.171551   34.002750   37.664162
Au   50.171551   34.002750   33.596161
Au   50.171551   34.002750   29.528160
Au   54.239552   34.002750   45.800159
Au   54.239552   34.002750   41.732159
Au   54.239552   34.002750   37.664162
Au   54.239552   34.002750   33.596161
Au   58.307549   34.002750   45.800159
Au   58.307549   34.002750   41.732159
Au   58.307549   34.002750   37.664162
Au   62.375549   34.002750   45.800159
Au   62.375549   34.002750   41.732159
Au   66.443550   34.002750   45.800159
Au   50.171551   29.934750   45.800159
Au   50.171551   29.934750   41.732159
Au   50.171551   29.934750   37.664162
Au   50.171551   29.934750   33.596161
Au   54.239552   29.934750   45.800159
Au   54.239552   29.934750   41.732159
Au   54.239552   29.934750   37.664162
Au   58.307549   29.934750   45.800159
Au   58.307549   29.934750   41.732159
Au   62.375549   29.934750   45.800159
Au   50.171551   25.866751   45.800159
Au   50.171551   25.866751   41.732159
Au   50.171551   25.866751   37.664162
Au   54.239552   25.866751   45.800159
Au   54.239552   25.866751   41.732159
Au   58.307549   25.866751   45.800159
Au   52.205551   46.206749   47.834160
Au   52.205551   46.206749   43.766159
Au   52.205551   46.206749   39.698158
Au   52.205551   46.206749   35.630161
Au   52.205551   46.206749   31.562160
Au   52.205551   46.206749   27.494160
Au   56.273548   46.206749   47.834160
Au   56.273548   46.206749   43.766159
Au   56.273548   46.206749   39.698158
Au   56.273548   46.206749   35.630161
Au   56.273548   46.206749   31.562160
Au   56.273548   46.206749   27.494160
Au   60.341549   46.206749   47.834160
Au   60.341549   46.206749   43.766159
Au   60.341549   46.206749   39.698158
Au   60.341549   46.206749   35.630161
Au   60.341549   46.206749   31.562160
Au   60.341549   46.206749   27.494160
Au   64.409554   46.206749   47.834160
Au   64.409554   46.206749   43.766159
Au   64.409554   46.206749   39.698158
Au   64.409554   46.206749   35.630161
Au   64.409554   46.206749   31.562160
Au   68.477547   46.206749   47.834160
Au   68.477547   46.206749   43.766159
Au   68.477547   46.206749   39.698158
Au   68.477547   46.206749   35.630161
Au   72.545547   46.206749   47.834160
Au   72.545547   46.206749   43.766159
Au   72.545547   46.206749   39.698158
Au   52.205551   42.138748   47.834160
Au   52.205551   42.138748   43.766159
Au   52.205551   42.138748   39.698158
Au   52.205551   42.138748   35.630161
Au   52.205551   42.138748   31.562160
Au   52.205551   42.138748   27.494160
Au   56.273548   42.138748   47.834160
Au   56.273548   42.138748   43.766159
Au   56.273548   42.138748   39.698158
Au   56.273548   42.138748   35.630161
Au   56.273548   42.138748   31.562160
Au   56.273548   42.138748   27.494160
Au   60.341549   42.138748   47.834160
Au   60.341549   42.138748   43.766159
Au   60.341549   42.138748   39.698158
Au   60.341549   42.138748   35.630161
Au   60.341549   42.138748   31.562160
Au   64.409554   42.138748   47.834160
Au   64.409554   42.138748   43.766159
Au   64.409554   42.138748   39.698158
Au   64.409554   42.138748   35.630161
Au   68.477547   42.138748   47.834160
Au   68.477547   42.138748   43.766159
Au   68.477547   42.138748   39.698158
Au   72.545547   42.138748   47.834160
Au   72.545547   42.138748   43.766159
Au   52.205551   38.070751   47.834160
Au   52.205551   38.070751   43.766159
Au   52.205551   38.070751   39.698158
Au   52.205551   38.070751   35.630161
Au   52.205551   38.070751   31.562160
Au   52.205551   38.070751   27.494160
Au   56.273548   38.070751   47.834160
Au   56.273548   38.070751   43.766159
Au   56.273548   38.070751   39.698158
Au   56.273548   38.070751   35.630161
Au   56.273548   38.070751   31.562160
Au   60.341549   38.070751   47.834160
Au   60.341549   38.070751   43.766159
Au   60.341549   38.070751   39.698158
Au   60.341549   38.070751   35.630161
Au   64.409554   38.070751   47.834160
Au   64.409554   38.070751   43.766159
Au   64.409554   38.070751   39.698158
Au   68.477547   38.070751   47.834160
Au   68.477547   38.070751   43.766159
Au   72.545547   38.070751   47.834160
Au   52.205551   34.002750   47.834160
Au   52.205551   34.002750   43.766159
Au   52.205551   34.002750   39.698158
Au   52.205551   34.002750   35.630161
Au   52.205551   34.002750   31.562160
Au   56.273548   34.002750   47.834160
Au   56.273548   34.002750   43.766159
Au   56.273548   34.002750   39.698158
Au   56.273548   34.002750   35.630161
Au   60.341549   34.002750   47.834160
Au   60.341549   34.002750   43.766159
Au   60.341549   34.002750   39.698158
Au   64.409554   34.002750   47.834160
Au   64.409554   34.002750   43.766159
Au   68.477547   34.002750   47.834160
Au   52.205551   29.934750   47.834160
Au   52.205551   29.934750   43.766159
Au   52.205551   29.934750   39.698158
Au   52.205551   29.934750   35.630161
Au   56.273548   29.934750   47.834160
Au   56.273548   29.934750   43.766159
Au   56.273548   29.934750   39.698158
Au   60.341549   29.934750   47.834160
Au   60.341549   29.934750   43.766159
Au   64.409554   29.934750   47.834160
Au   52.205551   25.866751   47.834160
Au   52.205551   25.866751   43.766159
Au   52.205551   25.866751   39.698158
Au   56.273548   25.866751   47.834160
Au   56.273548   25.866751   43.766159
Au   60.341549   25.866751   47.834160
Au   50.171551   48.240749   47.834160
Au   50.171551   48.240749   43.766159
Au   50.171551   48.240749   39.698158
Au   50.171551   48.240749   35.630161
Au   50.171551   48.240749   31.562160
Au   50.171551   48.240749   27.494160
Au   54.239552   48.240749   47.834160
Au   54.239552   48.240749   43.766159
Au   54.239552   48.240749   39.698158
Au   54.239552   48.240749   35.630161
Au   54.239552   48.240749   31.562160
Au   54.239552   48.240749   27.494160
Au   58.307549   48.240749   47.834160
Au   58.307549   48.240749   43.766159
Au   58.307549   48.240749   39.698158
Au   58.307549   48.240749   35.630161
Au   58.307549   48.240749   31.562160
Au   58.307549   48.240749   27.494160
Au   62.375549   48.240749   47.834160
Au   62.375549   48.240749   43.766159
Au   62.375549   48.240749   39.698158
Au   62.375549   48.240749   35.630161
Au   62.375549   48.240749   31.562160
Au   62.375549   48.240749   27.494160
Au   66.443550   48.240749   47.834160
Au   66.443550   48.240749   43.766159
Au   66.443550   48.240749   39.698158
Au   66.443550   48.240749   35.630161
Au   66.443550   48.240749   31.562160
Au   70.511551   48.240749   47.834160
Au   70.511551   48.240749   43.766159
Au   70.511551   48.240749   39.698158
Au   70.511551   48.240749   35.630161
Au   74.579552   48.240749   47.834160
Au   74.579552   48.240749   43.766159
Au   74.579552   48.240749   39.698158
Au   50.171551   44.172749   47.834160
Au   50.171551   44.172749   43.766159
Au   50.171551   44.172749   39.698158
Au   50.171551   44.172749   35.630161
Au   50.171551   44.172749   31.562160
Au   50.171551   44.172749   27.494160
Au   54.239552   44.172749   47.834160
Au   54.239552   44.172749   43.766159
Au   54.239552   44.172749   39.698158
Au   54.239552   44.172749   35.630161
Au   54.239552   44.172749   31.562160
Au   54.239552   44.172749   27.494160
Au   58.307549   44.172749   47.834160
Au   58.307549   44.172749   43.766159
Au   58.307549   44.172749   39.698158
Au   58.307549   44.172749   35.630161
Au   58.307549   44.172749   31.562160
Au   58.307549   44.172749   27.494160
Au   62.375549   44.172749   47.834160
Au   62.375549   44.172749   43.766159
Au   62.375549   44.172749   39.698158
Au   62.375549   44.172749   35.630161
Au   62.375549   44.172749   31.562160
Au   66.443550   44.172749   47.834160
Au   66.443550   44.172749   43.766159
Au   66.443550   44.172749   39.698158
Au   66.443550   44.172749   35.630161
Au   70.511551   44.172749   47.834160
Au   70.511551   44.172749   43.766159
Au   70.511551   44.172749   39.698158
Au   74.579552   44.172749   47.834160
Au   74.579552   44.172749   43.766159
Au   50.171551   40.104752   47.834160
Au   50.171551   40.104752   43.766159
Au   50.171551   40.104752   39.698158
Au   50.171551   40.104752   35.630161
Au   50.171551   40.104752   31.562160
Au   50.171551   40.104752   27.494160
Au   54.239552   40.104752   47.834160
Au   54.239552   40.104752   43.766159
Au   54.239552   40.104752   39.698158
Au   54.239552   40.104752   35.630161
Au   54.239552   40.104752   31.562160
Au   54.239552   40.104752   27.494160
Au   58.307549   40.104752   47.834160
Au   58.307549   40.104752   43.766159
Au   58.307549   40.104752   39.698158
Au   58.307549   40.104752   35.630161
Au   58.307549   40.104752   31.562160
Au   62.375549   40.104752   47.834160
Au   62.375549   40.104752   43.766159
Au   62.375549   40.104752   39.698158
Au   62.375549   40.104752   35.630161
Au   66.443550   40.104752   47.834160
Au   66.443550   40.104752   43.766159
Au   66.443550   40.104752   39.698158
Au   70.511551   40.104752   47.834160
Au   70.511551   40.104752   43.766159
Au   74.579552   40.104752   47.834160
Au   50.171551   36.036751   47.834160
Au   50.171551   36.036751   43.766159
Au   50.171551   36.036751   39.698158
Au   50.171551   36.036751   35.630161
Au   50.171551   36.036751   31.562160
Au   50.171551   36.036751   27.494160
Au   54.239552   36.036751   47.834160
Au   54.239552   36.036751   43.766159
Au   54.239552   36.036751   39.698158
Au   54.239552   36.036751   35.630161
Au   54.239552   36.036751   31.562160
Au   58.307549   36.036751   47.834160
Au   58.307549   36.036751   43.766159
Au   58.307549   36.036751   39.698158
Au   58.307549   36.036751   35.630161
Au   62.375549   36.036751   47.834160
Au   62.375549   36.036751   43.766159
Au   62.375549   36.036751   39.698158
Au   66.443550   36.036751   47.834160
Au   66.443550   36.036751   43.766159
Au   70.511551   36.036751   47.834160
Au   50.171551   31.968750   47.834160
Au   50.171551   31.968750   43.766159
Au   50.171551   31.968750   39.698158
Au   50.171551   31.968750   35.630161
Au   50.171551   31.968750   31.562160
Au   54.239552   31.968750   47.834160
Au   54.239552   31.968750   43.766159
Au   54.239552   31.968750   39.698158
Au   54.239552   31.968750   35.630161
Au   58.307549   31.968750   47.834160
Au   58.307549   31.968750   43.766159
Au   58.307549   31.968750   39.698158
Au   62.375549   31.968750   47.834160
Au   62.375549   31.968750   43.766159
Au   66.443550   31.968750   47.834160
Au   50.171551   27.900749   47.834160
Au   50.171551   27.900749   43.766159
Au   50.171551   27.900749   39.698158
Au   50.171551   27.900749   35.630161
Au   54.239552   27.900749   47.834160
Au   54.239552   27.900749   43.766159
Au   54.239552   27.900749   39.698158
Au   58.307549   27.900749   47.834160
Au   58.307549   27.900749   43.766159
Au   62.375549   27.900749   47.834160
Au   52.205551   48.240749   45.800159
Au   52.205551   48.240749   41.732159
Au   52.205551   48.240749   37.664162
Au   52.205551   48.240749   33.596161
Au   52.205551   48.240749   29.528160
Au   52.205551   48.240749   25.460159
Au   56.273548   48.240749   45.800159
Au   56.273548   48.240749   41.732159
Au   56.273548   48.240749   37.664162
Au   56.273548   48.240749   33.596161
Au   56.273548   48.240749   29.528160
Au   56.273548   48.240749   25.460159
Au   60.341549   48.240749   45.800159
Au   60.341549   48.240749   41.732159
Au   60.341549   48.240749   37.664162
Au   60.341549   48.240749   33.596161
Au   60.341549   48.240749   29.528160
Au   60.341549   48.240749   25.460159
Au   64.409554   48.240749   45.800159
Au   64.409554   48.240749   41.732159
Au   64.409554   48.240749   37.664162
Au   64.409554   48.240749   33.596161
Au   64.409554   48.240749   29.528160
Au   68.477547   48.240749   45.800159
Au   68.477547   48.240749   41.732159
Au   68.477547   48.240749   37.664162
Au   68.477547   48.240749   33.596161
Au   72.545547   48.240749   45.800159
Au   72.545547   48.240749   41.732159
Au   72.545547   48.240749   37.664162
Au   52.205551   44.172749   45.800159
Au   52.205551   44.172749   41.732159
Au   52.205551   44.172749   37.664162
Au   52.205551   44.172749   33.596161
Au   52.205551   44.172749   29.528160
Au   52.205551   44.172749   25.460159
Au   56.273548   44.172749   45.800159
Au   56.273548   44.172749   41.732159
Au   56.273548   44.172749   37.664162
Au   56.273548   44.172749   33.596161
Au   56.273548   44.172749   29.528160
Au   56.273548   44.172749   25.460159
Au   60.341549   44.172749   45.800159
Au   60.341549   44.172749   41.732159
Au   60.341549   44.172749   37.664162
Au   60.341549   44.172749   33.596161
Au   60.341549   44.172749   29.528160
Au   64.409554   44.172749   45.800159
Au   64.409554   44.172749   41.732159
Au   64.409554   44.172749   37.664162
Au   64.409554   44.172749   33.596161
Au   68.477547   44.172749   45.800159
Au   68.477547   44.172749   41.732159
Au   68.477547   44.172749   37.664162
Au   72.545547   44.172749   45.800159
Au   72.545547   44.172749   41.732159
Au   52.205551   40.104752   45.800159
Au   52.205551   40.104752   41.732159
Au   52.205551   40.104752   37.664162
Au   52.205551   40.104752   33.596161
Au   52.205551   40.104752   29.528160
Au   52.205551   40.104752   25.460159
Au   56.273548   40.104752   45.800159
Au   56.273548   40.104752   41.732159
Au   56.273548   40.104752   37.664162
Au   56.273548   40.104752   33.596161
Au   56.273548   40.104752   29.528160
Au   60.341549   40.104752   45.800159
Au   60.341549   40.104752   41.732159
Au   60.341549   40.104752   37.664162
Au   60.341549   40.104752   33.596161
Au   64.409554   40.104752   45.800159
Au   64.409554   40.104752   41.732159
Au   64.409554   40.104752   37.664162
Au   68.477547   40.104752   45.800159
Au   68.477547   40.104752   41.732159
Au   72.545547   40.104752   45.800159
Au   52.205551   36.036751   45.800159
Au   52.205551   36.036751   41.732159
Au   52.205551   36.036751   37.664162
Au   52.205551   36.036751   33.596161
Au   52.205551   36.036751   29.528160
Au   56.273548   36.036751   45.800159
Au   56.273548   36.036751   41.732159
Au   56.273548   36.036751   37.664162
Au   56.273548   36.036751   33.596161
Au   60.341549   36.036751   45.800159
Au   60.341549   36.036751   41.732159
Au   60.341549   36.036751   37.664162
Au   64.409554   36.036751   45.800159
Au   64.409554   36.036751   41.732159
Au   68.477547   36.036751   45.800159
Au   52.205551   31.968750   45.800159
Au   52.205551   31.968750   41.732159
Au   52.205551   31.968750   37.664162
Au   52.205551   31.968750   33.596161
Au   56.273548   31.968750   45.800159
Au   56.273548   31.968750   41.732159
Au   56.273548   31.968750   37.664162
Au   60.341549   31.968750   45.800159
Au   60.341549   31.968750   41.732159
Au   64.409554   31.968750   45.800159
Au   52.205551   27.900749   45.800159
Au   52.205551   27.900749   41.732159
Au   52.205551   27.900749   37.664162
Au   56.273548   27.900749   45.800159
Au   56.273548   27.900749   41.732159
Au   60.341549   27.900749   45.800159
Au   54.239552   50.274750   45.800159
Au   54.239552   50.274750   41.732159
Au   54.239552   50.274750   37.664162
Au   54.239552   50.274750   33.596161
Au   54.239552   50.274750   29.528160
Au   54.239552   50.274750   25.460159
Au   54.239552   54.342751   45.800159
Au   54.239552   54.342751   41.732159
Au   54.239552   54.342751   37.664162
Au   54.239552   54.342751   33.596161
Au   54.239552   54.342751   29.528160
Au   54.239552   54.342751   25.460159
Au   54.239552   58.410751   45.800159
Au   54.239552   58.410751   41.732159
Au   54.239552   58.410751   37.664162
Au   54.239552   58.410751   33.596161
Au   54.239552   58.410751   29.528160
Au   54.239552   58.410751   25.460159
Au   54.239552   62.478748   45.800159
Au   54.239552   62.478748   41.732159
Au   54.239552   62.478748   37.664162
Au   54.239552   62.478748   33.596161
Au   54.239552   62.478748   29.528160
Au   54.239552   66.546753   45.800159
Au   54.239552   66.546753   41.732159
Au   54.239552   66.546753   37.664162
Au   54.239552   66.546753   33.596161
Au   54.239552   70.614754   45.800159
Au   54.239552   70.614754   41.732159
Au   54.239552   70.614754   37.664162
Au   54.239552   74.682747   45.800159
Au   54.239552   74.682747   41.732159
Au   58.307549   50.274750   45.800159
Au   58.307549   50.274750   41.732159
Au   58.307549   50.274750   37.664162
Au   58.307549   50.274750   33.596161
Au   58.307549   50.274750   29.528160
Au   58.307549   50.274750   25.460159
Au   58.307549   54.342751   45.800159
Au   58.307549   54.342751   41.732159
Au   58.307549   54.342751   37.664162
Au   58.307549   54.342751   33.596161
Au   58.307549   54.342751   29.528160
Au   58.307549   54.342751   25.460159
Au   58.307549   58.410751   45.800159
Au   58.307549   58.410751   41.732159
Au   58.307549   58.410751   37.664162
Au   58.307549   58.410751   33.596161
Au   58.307549   58.410751   29.528160
Au   58.307549   62.478748   45.800159
Au   58.307549   62.478748   41.732159
Au   58.307549   62.478748   37.664162
Au   58.307549   62.478748   33.596161
Au   58.307549   66.546753   45.800159
Au   58.307549   66.546753   41.732159
Au   58.307549   66.546753   37.664162
Au   58.307549   70.614754   45.800159
Au   58.307549   70.614754   41.732159
Au   58.307549   74.682747   45.800159
Au   62.375549   50.274750   45.800159
Au   62.375549   50.274750   41.732159
Au   62.375549   50.274750   37.664162
Au   62.375549   50.274750   33.596161
Au   62.375549   50.274750   29.528160
Au   62.375549   50.274750   25.460159
Au   62.375549   54.342751   45.800159
Au   62.375549   54.342751   41.732159
Au   62.375549   54.342751   37.664162
Au   62.375549   54.342751   33.596161
Au   62.375549   54.342751   29.528160
Au   62.375549   58.410751   45.800159
Au   62.375549   58.410751   41.732159
Au   62.375549   58.410751   37.664162
Au   62.375549   58.410751   33.596161
Au   62.375549   62.478748   45.800159
Au   62.375549   62.478748   41.732159
Au   62.375549   62.478748   37.664162
Au   62.375549   66.546753   45.800159
Au   62.375549   66.546753   41.732159
Au   62.375549   70.614754   45.800159
Au   66.443550   50.274750   45.800159
Au   66.443550   50.274750   41.732159
Au   66.443550   50.274750   37.664162
Au   66.443550   50.274750   33.596161
Au   66.443550   50.274750   29.528160
Au   66.443550   54.342751   45.800159
Au   66.443550   54.342751   41.732159
Au   66.443550   54.342751   37.664162
Au   66.443550   54.342751   33.596161
Au   66.443550   58.410751   45.800159
Au   66.443550   58.410751   41.732159
Au   66.443550   58.410751   37.664162
Au   66.443550   62.478748   45.800159
Au   66.443550   62.478748   41.732159
Au   66.443550   66.546753   45.800159
Au   70.511551   50.274750   45.800159
Au   70.511551   50.274750   41.732159
Au   70.511551   50.274750   37.664162
Au   70.511551   50.274750   33.596161
Au   70.511551   54.342751   45.800159
Au   70.511551   54.342751   41.732159
Au   70.511551   54.342751   37.664162
Au   70.511551   58.410751   45.800159
Au   70.511551   58.410751   41.732159
Au   70.511551   62.478748   45.800159
Au   74.579552   50.274750   45.800159
Au   74.579552   50.274750   41.732159
Au   74.579552   50.274750   37.664162
Au   74.579552   54.342751   45.800159
Au   74.579552   54.342751   41.732159
Au   74.579552   58.410751   45.800159
Au   54.239552   52.308750   47.834160
Au   54.239552   52.308750   43.766159
Au   54.239552   52.308750   39.698158
Au   54.239552   52.308750   35.630161
Au   54.239552   52.308750   31.562160
Au   54.239552   52.308750   27.494160
Au   54.239552   56.376751   47.834160
Au   54.239552   56.376751   43.766159
Au   54.239552   56.376751   39.698158
Au   54.239552   56.376751   35.630161
Au   54.239552   56.376751   31.562160
Au   54.239552   56.376751   27.494160
Au   54.239552   60.444752   47.834160
Au   54.239552   60.444752   43.766159
Au   54.239552   60.444752   39.698158
Au   54.239552   60.444752   35.630161
Au   54.239552   60.444752   31.562160
Au   54.239552   60.444752   27.494160
Au   54.239552   64.512749   47.834160
Au   54.239552   64.512749   43.766159
Au   54.239552   64.512749   39.698158
Au   54.239552   64.512749   35.630161
Au   54.239552   64.512749   31.562160
Au   54.239552   68.580750   47.834160
Au   54.239552   68.580750   43.766159
Au   54.239552   68.580750   39.698158
Au   54.239552   68.580750   35.630161
Au   54.239552   72.648750   47.834160
Au   54.239552   72.648750   43.766159
Au   54.239552   72.648750   39.698158
Au   58.307549   52.308750   47.834160
Au   58.307549   52.308750   43.766159
Au   58.307549   52.308750   39.698158
Au   58.307549   52.308750   35.630161
Au   58.307549   52.308750   31.562160
Au   58.307549   52.308750   27.494160
Au   58.307549   56.376751   47.834160
Au   58.307549   56.376751   43.766159
Au   58.307549   56.376751   39.698158
Au   58.307549   56.376751   35.630161
Au   58.307549   56.376751   31.562160
Au   58.307549   56.376751   27.494160
Au   58.307549   60.444752   47.834160
Au   58.307549   60.444752   43.766159
Au   58.307549   60.444752   39.698158
Au   58.307549   60.444752   35.630161
Au   58.307549   60.444752   31.562160
Au   58.307549   64.512749   47.834160
Au   58.307549   64.512749   43.766159
Au   58.307549   64.512749   39.698158
Au   58.307549   64.512749   35.630161
Au   58.307549   68.580750   47.834160
Au   58.307549   68.580750   43.766159
Au   58.307549   68.580750   39.698158
Au   58.307549   72.648750   47.834160
Au   58.307549   72.648750   43.766159
Au   62.375549   52.308750   47.834160
Au   62.375549   52.308750   43.766159
Au   62.375549   52.308750   39.698158
Au   62.375549   52.308750   35.630161
Au   62.375549   52.308750   31.562160
Au   62.375549   52.308750   27.494160
Au   62.375549   56.376751   47.834160
Au   62.375549   56.376751   43.766159
Au   62.375549   56.376751   39.698158
Au   62.375549   56.376751   35.630161
Au   62.375549   56.376751   31.562160
Au   62.375549   60.444752   47.834160
Au   62.375549   60.444752   43.766159
Au   62.375549   60.444752   39.698158
Au   62.375549   60.444752   35.630161
Au   62.375549   64.512749   47.834160
Au   62.375549   64.512749   43.766159
Au   62.375549   64.512749   39.698158
Au   62.375549   68.580750   47.834160
Au   62.375549   68.580750   43.766159
Au   62.375549   72.648750   47.834160
Au   66.443550   52.308750   47.834160
Au   66.443550   52.308750   43.766159
Au   66.443550   52.308750   39.698158
Au   66.443550   52.308750   35.630161
Au   66.443550   52.308750   31.562160
Au   66.443550   56.376751   47.834160
Au   66.443550   56.376751   43.766159
Au   66.443550   56.376751   39.698158
Au   66.443550   56.376751   35.630161
Au   66.443550   60.444752   47.834160
Au   66.443550   60.444752   43.766159
Au   66.443550   60.444752   39.698158
Au   66.443550   64.512749   47.834160
Au   66.443550   64.512749   43.766159
Au   66.443550   68.580750   47.834160
Au   70.511551   52.308750   47.834160
Au   70.511551   52.308750   43.766159
Au   70.511551   52.308750   39.698158
Au   70.511551   52.308750   35.630161
Au   70.511551   56.376751   47.834160
Au   70.511551   56.376751   43.766159
Au   70.511551   56.376751   39.698158
Au   70.511551   60.444752   47.834160
Au   70.511551   60.444752   43.766159
Au   70.511551   64.512749   47.834160
Au   74.579552   52.308750   47.834160
Au   74.579552   52.308750   43.766159
Au   74.579552   52.308750   39.698158
Au   74.579552   56.376751   47.834160
Au   74.579552   56.376751   43.766159
Au   74.579552   60.444752   47.834160
Au   52.205551   50.274750   47.834160
Au   52.205551   50.274750   43.766159
Au   52.205551   50.274750   39.698158
Au   52.205551   50.274750   35.630161
Au   52.205551   50.274750   31.562160
Au   52.205551   50.274750   27.494160
Au   52.205551   54.342751   47.834160
Au   52.205551   54.342751   43.766159
Au   52.205551   54.342751   39.698158
Au   52.205551   54.342751   35.630161
Au   52.205551   54.342751   31.562160
Au   52.205551   54.342751   27.494160
Au   52.205551   58.410751   47.834160
Au   52.205551   58.410751   43.766159
Au   52.205551   58.410751   39.698158
Au   52.205551   58.410751   35.630161
Au   52.205551   58.410751   31.562160
Au   52.205551   58.410751   27.494160
Au   52.205551   62.478748   47.834160
Au   52.205551   62.478748   43.766159
Au   52.205551   62.478748   39.698158
Au   52.205551   62.478748   35.630161
Au   52.205551   62.478748   31.562160
Au   52.205551   62.478748   27.494160
Au   52.205551   66.546753   47.834160
Au   52.205551   66.546753   43.766159
Au   52.205551   66.546753   39.698158
Au   52.205551   66.546753   35.630161
Au   52.205551   66.546753   31.562160
Au   52.205551   70.614754   47.834160
Au   52.205551   70.614754   43.766159
Au   52.205551   70.614754   39.698158
Au   52.205551   70.614754   35.630161
Au   52.205551   74.682747   47.834160
Au   52.205551   74.682747   43.766159
Au   52.205551   74.682747   39.698158
Au   56.273548   50.274750   47.834160
Au   56.273548   50.274750   43.766159
Au   56.273548   50.274750   39.698158
Au   56.273548   50.274750   35.630161
Au   56.273548   50.274750   31.562160
Au   56.273548   50.274750   27.494160
Au   56.273548   54.342751   47.834160
Au   56.273548   54.342751   43.766159
Au   56.273548   54.342751   39.698158
Au   56.273548   54.342751   35.630161
Au   56.273548   54.342751   31.562160
Au   56.273548   54.342751   27.494160
Au   56.273548   58.410751   47.834160
Au   56.273548   58.410751   43.766159
Au   56.273548   58.410751   39.698158
Au   56.273548   58.410751   35.630161
Au   56.273548   58.410751   31.562160
Au   56.273548   58.410751   27.494160
Au   56.273548   62.478748   47.834160
Au   56.273548   62.478748   43.766159
Au   56.273548   62.478748   39.698158
Au   56.273548   62.478748   35.630161
Au   56.273548   62.478748   31.562160
Au   56.273548   66.546753   47.834160
Au   56.273548   66.546753   43.766159
Au   56.273548   66.546753   39.698158
Au   56.273548   66.546753   35.630161
Au   56.273548   70.614754   47.834160
Au   56.273548   70.614754   43.766159
Au   56.273548   70.614754   39.698158
Au   56.273548   74.682747   47.834160
Au   56.273548   74.682747   43.766159
Au   60.341549   50.274750   47.834160
Au   60.341549   50.274750   43.766159
Au   60.341549   50.274750   39.698158
Au   60.341549   50.274750   35.630161
Au   60.341549   50.274750   31.562160
Au   60.341549   50.274750   27.494160
Au   60.341549   54.342751   47.834160
Au   60.341549   54.342751   43.766159
Au   60.341549   54.342751   39.698158
Au   60.341549   54.342751   35.630161
Au   60.341549   54.342751   31.562160
Au   60.341549   54.342751   27.494160
Au   60.341549   58.410751   47.834160
Au   60.341549   58.410751   43.766159
Au   60.341549   58.410751   39.698158
Au   60.341549   58.410751   35.630161
Au   60.341549   58.410751   31.562160
Au   60.341549   62.478748   47.834160
Au   60.341549   62.478748   43.766159
Au   60.341549   62.478748   39.698158
Au   60.341549   62.478748   35.630161
Au   60.341549   66.546753   47.834160
Au   60.341549   66.546753   43.766159
Au   60.341549   66.546753   39.698158
Au   60.341549   70.614754   47.834160
Au   60.341549   70.614754   43.766159
Au   60.341549   74.682747   47.834160
Au   64.409554   50.274750   47.834160
Au   64.409554   50.274750   43.766159
Au   64.409554   50.274750   39.698158
Au   64.409554   50.274750   35.630161
Au   64.409554   50.274750   31.562160
Au   64.409554   50.274750   27.494160
Au   64.409554   54.342751   47.834160
Au   64.409554   54.342751   43.766159
Au   64.409554   54.342751   39.698158
Au   64.409554   54.342751   35.630161
Au   64.409554   54.342751   31.562160
Au   64.409554   58.410751   47.834160
Au   64.409554   58.410751   43.766159
Au   64.409554   58.410751   39.698158
Au   64.409554   58.410751   35.630161
Au   64.409554   62.478748   47.834160
Au   64.409554   62.478748   43.766159
Au   64.409554   62.478748   39.698158
Au   64.409554   66.546753   47.834160
Au   64.409554   66.546753   43.766159
Au   64.409554   70.614754   47.834160
Au   68.477547   50.274750   47.834160
Au   68.477547   50.274750   43.766159
Au   68.477547   50.274750   39.698158
Au   68.477547   50.274750   35.630161
Au   68.477547   50.274750   31.562160
Au   68.477547   54.342751   47.834160
Au   68.477547   54.342751   43.766159
Au   68.477547   54.342751   39.698158
Au   68.477547   54.342751   35.630161
Au   68.477547   58.410751   47.834160
Au   68.477547   58.410751   43.766159
Au   68.477547   58.410751   39.698158
Au   68.477547   62.478748   47.834160
Au   68.477547   62.478748   43.766159
Au   68.477547   66.546753   47.834160
Au   72.545547   50.274750   47.834160
Au   72.545547   50.274750   43.766159
Au   72.545547   50.274750   39.698158
Au   72.545547   50.274750   35.630161
Au   72.545547   54.342751   47.834160
Au   72.545547   54.342751   43.766159
Au   72.545547   54.342751   39.698158
Au   72.545547   58.410751   47.834160
Au   72.545547   58.410751   43.766159
Au   72.545547   62.478748   47.834160
Au   52.205551   52.308750   45.800159
Au   52.205551   52.308750   41.732159
Au   52.205551   52.308750   37.664162
Au   52.205551   52.308750   33.596161
Au   52.205551   52.308750   29.528160
Au   52.205551   52.308750   25.460159
Au   52.205551   56.376751   45.800159
Au   52.205551   56.376751   41.732159
Au   52.205551   56.376751   37.664162
Au   52.205551   56.376751   33.596161
Au   52.205551   56.376751   29.528160
Au   52.205551   56.376751   25.460159
Au   52.205551   60.444752   45.800159
Au   52.205551   60.444752   41.732159
Au   52.205551   60.444752   37.664162
Au   52.205551   60.444752   33.596161
Au   52.205551   60.444752   29.528160
Au   52.205551   60.444752   25.460159
Au   52.205551   64.512749   45.800159
Au   52.205551   64.512749   41.732159
Au   52.205551   64.512749   37.664162
Au   52.205551   64.512749   33.596161
Au   52.205551   64.512749   29.528160
Au   52.205551   68.580750   45.800159
Au   52.205551   68.580750   41.732159
Au   52.205551   68.580750   37.664162
Au   52.205551   68.580750   33.596161
Au   52.205551   72.648750   45.800159
Au   52.205551   72.648750   41.732159
Au   52.205551   72.648750   37.664162
Au   56.273548   52.308750   45.800159
Au   56.273548   52.308750   41.732159
Au   56.273548   52.308750   37.664162
Au   56.273548   52.308750   33.596161
Au   56.273548   52.308750   29.528160
Au   56.273548   52.308750   25.460159
Au   56.273548   56.376751   45.800159
Au   56.273548   56.376751   41.732159
Au   56.273548   56.376751   37.664162
Au   56.273548   56.376751   33.596161
Au   56.273548   56.376751   29.528160
Au   56.273548   56.376751   25.460159
Au   56.273548   60.444752   45.800159
Au   56.273548   60.444752   41.732159
Au   56.273548   60.444752   37.664162
Au   56.273548   60.444752   33.596161
Au   56.273548   60.444752   29.528160
Au   56.273548   64.512749   45.800159
Au   56.273548   64.512749   41.732159
Au   56.273548   64.512749   37.664162
Au   56.273548   64.512749   33.596161
Au   56.273548   68.580750   45.800159
Au   56.273548   68.580750   41.732159
Au   56.273548   68.580750   37.664162
Au   56.273548   72.648750   45.800159
Au   56.273548   72.648750   41.732159
Au   60.341549   52.308750   45.800159
Au   60.341549   52.308750   41.732159
Au   60.341549   52.308750   37.664162
Au   60.341549   52.308750   33.596161
Au   60.341549   52.308750   29.528160
Au   60.341549   52.308750   25.460159
Au   60.341549   56.376751   45.800159
Au   60.341549   56.376751   41.732159
Au   60.341549   56.376751   37.664162
Au   60.341549   56.376751   33.596161
Au   60.341549   56.376751   29.528160
Au   60.341549   60.444752   45.800159
Au   60.341549   60.444752   41.732159
Au   60.341549   60.444752   37.664162
Au   60.341549   60.444752   33.596161
Au   60.341549   64.512749   45.800159
Au   60.341549   64.512749   41.732159
Au   60.341549   64.512749   37.664162
Au   60.341549   68.580750   45.800159
Au   60.341549   68.580750   41.732159
Au   60.341549   72.648750   45.800159
Au   64.409554   52.308750   45.800159
Au   64.409554   52.308750   41.732159
Au   64.409554   52.308750   37.664162
Au   64.409554   52.308750   33.596161
Au   64.409554   52.308750   29.528160
Au   64.409554   56.376751   45.800159
Au   64.409554   56.376751   41.732159
Au   64.409554   56.376751   37.664162
Au   64.409554   56.376751   33.596161
Au   64.409554   60.444752   45.800159
Au   64.409554   60.444752   41.732159
Au   64.409554   60.444752   37.664162
Au   64.409554   64.512749   45.800159
Au   64.409554   64.512749   41.732159
Au   64.409554   68.580750   45.800159
Au   68.477547   52.308750   45.800159
Au   68.477547   52.308750   41.732159
Au   68.477547   52.308750   37.664162
Au   68.477547   52.308750   33.596161
Au   68.477547   56.376751   45.800159
Au   68.477547   56.376751   41.732159
Au   68.477547   56.376751   37.664162
Au   68.477547   60.444752   45.800159
Au   68.477547   60.444752   41.732159
Au   68.477547   64.512749   45.800159
Au   72.545547   52.308750   45.800159
Au   72.545547   52.308750   41.732159
Au   72.545547   52.308750   37.664162
Au   72.545547   56.376751   45.800159
Au   72.545547   56.376751   41.732159
Au   72.545547   60.444752   45.800159
Au   50.171551   54.342751   45.800159
Au   50.171551   54.342751   41.732159
Au   50.171551   54.342751   37.664162
Au   50.171551   54.342751   33.596161
Au   50.171551   54.342751   29.528160
Au   50.171551   54.342751   25.460159
Au   46.103550   54.342751   45.800159
Au   46.103550   54.342751   41.732159
Au   46.103550   54.342751   37.664162
Au   46.103550   54.342751   33.596161
Au   46.103550   54.342751   29.528160
Au   46.103550   54.342751   25.460159
Au   42.035549   54.342751   45.800159
Au   42.035549   54.342751   41.732159
Au   42.035549   54.342751   37.664162
Au   42.035549   54.342751   33.596161
Au   42.035549   54.342751   29.528160
Au   42.035549   54.342751   25.460159
Au   37.967548   54.342751   45.800159
Au   37.967548   54.342751   41.732159
Au   37.967548   54.342751   37.664162
Au   37.967548   54.342751   33.596161
Au   37.967548   54.342751   29.528160
Au   33.899551   54.342751   45.800159
Au   33.899551   54.342751   41.732159
Au   33.899551   54.342751   37.664162
Au   33.899551   54.342751   33.596161
Au   29.831551   54.342751   45.800159
Au   29.831551   54.342751   41.732159
Au   29.831551   54.342751   37.664162
Au   25.763550   54.342751   45.800159
Au   25.763550   54.342751   41.732159
Au   50.171551   58.410751   45.800159
Au   50.171551   58.410751   41.732159
Au   50.171551   58.410751   37.664162
Au   50.171551   58.410751   33.596161
Au   50.171551   58.410751   29.528160
Au   50.171551   58.410751   25.460159
Au   46.103550   58.410751   45.800159
Au   46.103550   58.410751   41.732159
Au   46.103550   58.410751   37.664162
Au   46.103550   58.410751   33.596161
Au   46.103550   58.410751   29.528160
Au   46.103550   58.410751   25.460159
Au   42.035549   58.410751   45.800159
Au   42.035549   58.410751   41.732159
Au   42.035549   58.410751   37.664162
Au   42.035549   58.410751   33.596161
Au   42.035549   58.410751   29.528160
Au   37.967548   58.410751   45.800159
Au   37.967548   58.410751   41.732159
Au   37.967548   58.410751   37.664162
Au   37.967548   58.410751   33.596161
Au   33.899551   58.410751   45.800159
Au   33.899551   58.410751   41.732159
Au   33.899551   58.410751   37.664162
Au   29.831551   58.410751   45.800159
Au   29.831551   58.410751   41.732159
Au   25.763550   58.410751   45.800159
Au   50.171551   62.478748   45.800159
Au   50.171551   62.478748   41.732159
Au   50.171551   62.478748   37.664162
Au   50.171551   62.478748   33.596161
Au   50.171551   62.478748   29.528160
Au   50.171551   62.478748   25.460159
Au   46.103550   62.478748   45.800159
Au   46.103550   62.478748   41.732159
Au   46.103550   62.478748   37.664162
Au   46.103550   62.478748   33.596161
Au   46.103550   62.478748   29.528160
Au   42.035549   62.478748   45.800159
Au   42.035549   62.478748   41.732159
Au   42.035549   62.478748   37.664162
Au   42.035549   62.478748   33.596161
Au   37.967548   62.478748   45.800159
Au   37.967548   62.478748   41.732159
Au   37.967548   62.478748   37.664162
Au   33.899551   62.478748   45.800159
Au   33.899551   62.478748   41.732159
Au   29.831551   62.478748   45.800159
Au   50.171551   66.546753   45.800159
Au   50.171551   66.546753   41.732159
Au   50.171551   66.546753   37.664162
Au   50.171551   66.546753   33.596161
Au   50.171551   66.546753   29.528160
Au   46.103550   66.546753   45.800159
Au   46.103550   66.546753   41.732159
Au   46.103550   66.546753   37.664162
Au   46.103550   66.546753   33.596161
Au   42.035549   66.546753   45.800159
Au   42.035549   66.546753   41.732159
Au   42.035549   66.546753   37.664162
Au   37.967548   66.546753   45.800159
Au   37.967548   66.546753   41.732159
Au   33.899551   66.546753   45.800159
Au   50.171551   70.614754   45.800159
Au   50.171551   70.614754   41.732159
Au   50.171551   70.614754   37.664162
Au   50.171551   70.614754   33.596161
Au   46.103550   70.614754   45.800159
Au   46.103550   70.614754   41.732159
Au   46.103550   70.614754   37.664162
Au   42.035549   70.614754   45.800159
Au   42.035549   70.614754   41.732159
Au   37.967548   70.614754   45.800159
Au   50.171551   74.682747   45.800159
Au   50.171551   74.682747   41.732159
Au   50.171551   74.682747   37.664162
Au   46.103550   74.682747   45.800159
Au   46.103550   74.682747   41.732159
Au   42.035549   74.682747   45.800159
Au   48.137550   54.342751   47.834160
Au   48.137550   54.342751   43.766159
Au   48.137550   54.342751   39.698158
Au   48.137550   54.342751   35.630161
Au   48.137550   54.342751   31.562160
Au   48.137550   54.342751   27.494160
Au   44.069550   54.342751   47.834160
Au   44.069550   54.342751   43.766159
Au   44.069550   54.342751   39.698158
Au   44.069550   54.342751   35.630161
Au   44.069550   54.342751   31.562160
Au   44.069550   54.342751   27.494160
Au   40.001549   54.342751   47.834160
Au   40.001549   54.342751   43.766159
Au   40.001549   54.342751   39.698158
Au   40.001549   54.342751   35.630161
Au   40.001549   54.342751   31.562160
Au   40.001549   54.342751   27.494160
Au   35.933552   54.342751   47.834160
Au   35.933552   54.342751   43.766159
Au   35.933552   54.342751   39.698158
Au   35.933552   54.342751   35.630161
Au   35.933552   54.342751   31.562160
Au   31.865549   54.342751   47.834160
Au   31.865549   54.342751   43.766159
Au   31.865549   54.342751   39.698158
Au   31.865549   54.342751   35.630161
Au   27.797550   54.342751   47.834160
Au   27.797550   54.342751   43.766159
Au   27.797550   54.342751   39.698158
Au   48.137550   58.410751   47.834160
Au   48.137550   58.410751   43.766159
Au   48.137550   58.410751   39.698158
Au   48.137550   58.410751   35.630161
Au   48.137550   58.410751   31.562160
Au   48.137550   58.410751   27.494160
Au   44.069550   58.410751   47.834160
Au   44.069550   58.410751   43.766159
Au   44.069550   58.410751   39.698158
Au   44.069550   58.410751   35.630161
Au   44.069550   58.410751   31.562160
Au   44.069550   58.410751   27.494160
Au   40.001549   58.410751   47.834160
Au   40.001549   58.410751   43.766159
Au   40.001549   58.410751   39.698158
Au   40.001549   58.410751   35.630161
Au   40.001549   58.410751   31.562160
Au   35.933552   58.410751   47.834160
Au   35.933552   58.410751   43.766159
Au   35.933552   58.410751   39.698158
Au   35.933552   58.410751   35.630161
Au   31.865549   58.410751   47.834160
Au   31.865549   58.410751   43.766159
Au   31.865549   58.410751   39.698158
Au   27.797550   58.410751   47.834160
Au   27.797550   58.410751   43.766159
Au   48.137550   62.478748   47.834160
Au   48.137550   62.478748   43.766159
Au   48.137550   62.478748   39.698158
Au   48.137550   62.478748   35.630161
Au   48.137550   62.478748   31.562160
Au   48.137550   62.478748   27.494160
Au   44.069550   62.478748   47.834160
Au   44.069550   62.478748   43.766159
Au   44.069550   62.478748   39.698158
Au   44.069550   62.478748   35.630161
Au   44.069550   62.478748   31.562160
Au   40.001549   62.478748   47.834160
Au   40.001549   62.478748   43.766159
Au   40.001549   62.478748   39.698158
Au   40.001549   62.478748   35.630161
Au   35.933552   62.478748   47.834160
Au   35.933552   62.478748   43.766159
Au   35.933552   62.478748   39.698158
Au   31.865549   62.478748   47.834160
Au   31.865549   62.478748   43.766159
Au   27.797550   62.478748   47.834160
Au   48.137550   66.546753   47.834160
Au   48.137550   66.546753   43.766159
Au   48.137550   66.546753   39.698158
Au   48.137550   66.546753   35.630161
Au   48.137550   66.546753   31.562160
Au   44.069550   66.546753   47.834160
Au   44.069550   66.546753   43.766159
Au   44.069550   66.546753   39.698158
Au   44.069550   66.546753   35.630161
Au   40.001549   66.546753   47.834160
Au   40.001549   66.546753   43.766159
Au   40.001549   66.546753   39.698158
Au   35.933552   66.546753   47.834160
Au   35.933552   66.546753   43.766159
Au   31.865549   66.546753   47.834160
Au   48.137550   70.614754   47.834160
Au   48.137550   70.614754   43.766159
Au   48.137550   70.614754   39.698158
Au   48.137550   70.614754   35.630161
Au   44.069550   70.614754   47.834160
Au   44.069550   70.614754   43.766159
Au   44.069550   70.614754   39.698158
Au   40.001549   70.614754   47.834160
Au   40.001549   70.614754   43.766159
Au   35.933552   70.614754   47.834160
Au   48.137550   74.682747   47.834160
Au   48.137550   74.682747   43.766159
Au   48.137550   74.682747   39.698158
Au   44.069550   74.682747   47.834160
Au   44.069550   74.682747   43.766159
Au   40.001549   74.682747   47.834160
Au   50.171551   52.308750   47.834160
Au   50.171551   52.308750   43.766159
Au   50.171551   52.308750   39.698158
Au   50.171551   52.308750   35.630161
Au   50.171551   52.308750   31.562160
Au   50.171551   52.308750   27.494160
Au   46.103550   52.308750   47.834160
Au   46.103550   52.308750   43.766159
Au   46.103550   52.308750   39.698158
Au   46.103550   52.308750   35.630161
Au   46.103550   52.308750   31.562160
Au   46.103550   52.308750   27.494160
Au   42.035549   52.308750   47.834160
Au   42.035549   52.308750   43.766159
Au   42.035549   52.308750   39.698158
Au   42.035549   52.308750   35.630161
Au   42.035549   52.308750   31.562160
Au   42.035549   52.308750   27.494160
Au   37.967548   52.308750   47.834160
Au   37.967548   52.308750   43.766159
Au   37.967548   52.308750   39.698158
Au   37.967548   52.308750   35.630161
Au   37.967548   52.308750   31.562160
Au   37.967548   52.308750   27.494160
Au   33.899551   52.308750   47.834160
Au   33.899551   52.308750   43.766159
Au   33.899551   52.308750   39.698158
Au   33.899551   52.308750   35.630161
Au   33.899551   52.308750   31.562160
Au   29.831551   52.308750   47.834160
Au   29.831551   52.308750   43.766159
Au   29.831551   52.308750   39.698158
Au   29.831551   52.308750   35.630161
Au   25.763550   52.308750   47.834160
Au   25.763550   52.308750   43.766159
Au   25.763550   52.308750   39.698158
Au   50.171551   56.376751   47.834160
Au   50.171551   56.376751   43.766159
Au   50.171551   56.376751   39.698158
Au   50.171551   56.376751   35.630161
Au   50.171551   56.376751   31.562160
Au   50.171551   56.376751   27.494160
Au   46.103550   56.376751   47.834160
Au   46.103550   56.376751   43.766159
Au   46.103550   56.376751   39.698158
Au   46.103550   56.376751   35.630161
Au   46.103550   56.376751   31.562160
Au   46.103550   56.376751   27.494160
Au   42.035549   56.376751   47.834160
Au   42.035549   56.376751   43.766159
Au   42.035549   56.376751   39.698158
Au   42.035549   56.376751   35.630161
Au   42.035549   56.376751   31.562160
Au   42.035549   56.376751   27.494160
Au   37.967548   56.376751   47.834160
Au   37.967548   56.376751   43.766159
Au   37.967548   56.376751   39.698158
Au   37.967548   56.376751   35.630161
Au   37.967548   56.376751   31.562160
Au   33.899551   56.376751   47.834160
Au   33.899551   56.376751   43.766159
Au   33.899551   56.376751   39.698158
Au   33.899551   56.376751   35.630161
Au   29.831551   56.376751   47.834160
Au   29.831551   56.376751   43.766159
Au   29.831551   56.376751   39.698158
Au   25.763550   56.376751   47.834160
Au   25.763550   56.376751   43.766159
Au   50.171551   60.444752   47.834160
Au   50.171551   60.444752   43.766159
Au   50.171551   60.444752   39.698158
Au   50.171551   60.444752   35.630161
Au   50.171551   60.444752   31.562160
Au   50.171551   60.444752   27.494160
Au   46.103550   60.444752   47.834160
Au   46.103550   60.444752   43.766159
Au   46.103550   60.444752   39.698158
Au   46.103550   60.444752   35.630161
Au   46.103550   60.444752   31.562160
Au   46.103550   60.444752   27.494160
Au   42.035549   60.444752   47.834160
Au   42.035549   60.444752   43.766159
Au   42.035549   60.444752   39.698158
Au   42.035549   60.444752   35.630161
Au   42.035549   60.444752   31.562160
Au   37.967548   60.444752   47.834160
Au   37.967548   60.444752   43.766159
Au   37.967548   60.444752   39.698158
Au   37.967548   60.444752   35.630161
Au   33.899551   60.444752   47.834160
Au   33.899551   60.444752   43.766159
Au   33.899551   60.444752   39.698158
Au   29.831551   60.444752   47.834160
Au   29.831551   60.444752   43.766159
Au   25.763550   60.444752   47.834160
Au   50.171551   64.512749   47.834160
Au   50.171551   64.512749   43.766159
Au   50.171551   64.512749   39.698158
Au   50.171551   64.512749   35.630161
Au   50.171551   64.512749   31.562160
Au   50.171551   64.512749   27.494160
Au   46.103550   64.512749   47.834160
Au   46.103550   64.512749   43.766159
Au   46.103550   64.512749   39.698158
Au   46.103550   64.512749   35.630161
Au   46.103550   64.512749   31.562160
Au   42.035549   64.512749   47.834160
Au   42.035549   64.512749   43.766159
Au   42.035549   64.512749   39.698158
Au   42.035549   64.512749   35.630161
Au   37.967548   64.512749   47.834160
Au   37.967548   64.512749   43.766159
Au   37.967548   64.512749   39.698158
Au   33.899551   64.512749   47.834160
Au   33.899551   64.512749   43.766159
Au   29.831551   64.512749   47.834160
Au   50.171551   68.580750   47.834160
Au   50.171551   68.580750   43.766159
Au   50.171551   68.580750   39.698158
Au   50.171551   68.580750   35.630161
Au   50.171551   68.580750   31.562160
Au   46.103550   68.580750   47.834160
Au   46.103550   68.580750   43.766159
Au   46.103550   68.580750   39.698158
Au   46.103550   68.580750   35.630161
Au   42.035549   68.580750   47.834160
Au   42.035549   68.580750   43.766159
Au   42.035549   68.580750   39.698158
Au   37.967548   68.580750   47.834160
Au   37.967548   68.580750   43.766159
Au   33.899551   68.580750   47.834160
Au   50.171551   72.648750   47.834160
Au   50.171551   72.648750   43.766159
Au   50.171551   72.648750   39.698158
Au   50.171551   72.648750   35.630161
Au   46.103550   72.648750   47.834160
Au   46.103550   72.648750   43.766159
Au   46.103550   72.648750   39.698158
Au   42.035549   72.648750   47.834160
Au   42.035549   72.648750   43.766159
Au   37.967548   72.648750   47.834160
Au   48.137550   52.308750   45.800159
Au   48.137550   52.308750   41.732159
Au   48.137550   52.308750   37.664162
Au   48.137550   52.308750   33.596161
Au   48.137550   52.308750   29.528160
Au   48.137550   52.308750   25.460159
Au   44.069550   52.308750   45.800159
Au   44.069550   52.308750   41.732159
Au   44.069550   52.308750   37.664162
Au   44.069550   52.308750   33.596161
Au   44.069550   52.308750   29.528160
Au   44.069550   52.308750   25.460159
Au   40.001549   52.308750   45.800159
Au   40.001549   52.308750   41.732159
Au   40.001549   52.308750   37.664162
Au   40.001549   52.308750   33.596161
Au   40.001549   52.308750   29.528160
Au   40.001549   52.308750   25.460159
Au   35.933552   52.308750   45.800159
Au   35.933552   52.308750   41.732159
Au   35.933552   52.308750   37.664162
Au   35.933552   52.308750   33.596161
Au   35.933552   52.308750   29.528160
Au   31.865549   52.308750   45.800159
Au   31.865549   52.308750   41.732159
Au   31.865549   52.308750   37.664162
Au   31.865549   52.308750   33.596161
Au   27.797550   52.308750   45.800159
Au   27.797550   52.308750   41.732159
Au   27.797550   52.308750   37.664162
Au   48.137550   56.376751   45.800159
Au   48.137550   56.376751   41.732159
Au   48.137550   56.376751   37.664162
Au   48.137550   56.376751   33.596161
Au   48.137550   56.376751   29.528160
Au   48.137550   56.376751   25.460159
Au   44.069550   56.376751   45.800159
Au   44.069550   56.376751   41.732159
Au   44.069550   56.376751   37.664162
Au   44.069550   56.376751   33.596161
Au   44.069550   56.376751   29.528160
Au   44.069550   56.376751   25.460159
Au   40.001549   56.376751   45.800159
Au   40.001549   56.376751   41.732159
Au   40.001549   56.376751   37.664162
Au   40.001549   56.376751   33.596161
Au   40.001549   56.376751   29.528160
Au   35.933552   56.376751   45.800159
Au   35.933552   56.376751   41.732159
Au   35.933552   56.376751   37.664162
Au   35.933552   56.376751   33.596161
Au   31.865549   56.376751   45.800159
Au   31.865549   56.376751   41.732159
Au   31.865549   56.376751   37.664162
Au   27.797550   56.376751   45.800159
Au   27.797550   56.376751   41.732159
Au   48.137550   60.444752   45.800159
Au   48.137550   60.444752   41.732159
Au   48.137550   60.444752   37.664162
Au   48.137550   60.444752   33.596161
Au   48.137550   60.444752   29.528160
Au   48.137550   60.444752   25.460159
Au   44.069550   60.444752   45.800159
Au   44.069550   60.444752   41.732159
Au   44.069550   60.444752   37.664162
Au   44.069550   60.444752   33.596161
Au   44.069550   60.444752   29.528160
Au   40.001549   60.444752   45.800159
Au   40.001549   60.444752   41.732159
Au   40.001549   60.444752   37.664162
Au   40.001549   60.444752   33.596161
Au   35.933552   60.444752   45.800159
Au   35.933552   60.444752   41.732159
Au   35.933552   60.444752   37.664162
Au   31.865549   60.444752   45.800159
Au   31.865549   60.444752   41.732159
Au   27.797550   60.444752   45.800159
Au   48.137550   64.512749   45.800159
Au   48.137550   64.512749   41.732159
Au   48.137550   64.512749   37.664162
Au   48.137550   64.512749   33.596161
Au   48.137550   64.512749   29.528160
Au   44.069550   64.512749   45.800159
Au   44.069550   64.512749   41.732159
Au   44.069550   64.512749   37.664162
Au   44.069550   64.512749   33.596161
Au   40.001549   64.512749   45.800159
Au   40.001549   64.512749   41.732159
Au   40.001549   64.512749   37.664162
Au   35.933552   64.512749   45.800159
Au   35.933552   64.512749   41.732159
Au   31.865549   64.512749   45.800159
Au   48.137550   68.580750   45.800159
Au   48.137550   68.580750   41.732159
Au   48.137550   68.580750   37.664162
Au   48.137550   68.580750   33.596161
Au   44.069550   68.580750   45.800159
Au   44.069550   68.580750   41.732159
Au   44.069550   68.580750   37.664162
Au   40.001549   68.580750   45.800159
Au   40.001549   68.580750   41.732159
Au   35.933552   68.580750   45.800159
Au   48.137550   72.648750   45.800159
Au   48.137550   72.648750   41.732159
Au   48.137550   72.648750   37.664162
Au   44.069550   72.648750   45.800159
Au   44.069550   72.648750   41.732159
Au   40.001549   72.648750   45.800159
Au   50.171551   50.274750   45.800159
Au   50.171551   50.274750   41.732159
Au   50.171551   50.274750   37.664162
Au   50.171551   50.274750   33.596161
Au   50.171551   50.274750   29.528160
Au   50.171551   50.274750   25.460159
