4033
 generated by VMD
Au 54.471750 50.489975 50.081644
Au 54.471750 50.489975 54.167060
Au 54.471750 50.489975 58.252476
Au 54.471750 50.489975 62.337888
Au 54.471750 50.489975 66.423304
Au 54.471750 50.489975 70.508719
Au 54.471750 50.489975 74.594135
Au 54.471750 54.575391 50.081644
Au 54.471750 54.575391 54.167060
Au 54.471750 54.575391 58.252476
Au 54.471750 54.575391 62.337888
Au 54.471750 54.575391 66.423304
Au 54.471750 54.575391 70.508719
Au 54.471750 54.575391 74.594135
Au 54.471750 58.660806 50.081644
Au 54.471750 58.660806 54.167060
Au 54.471750 58.660806 58.252476
Au 54.471750 58.660806 62.337888
Au 54.471750 58.660806 66.423304
Au 54.471750 58.660806 70.508719
Au 54.471750 58.660806 74.594135
Au 54.471750 62.746218 50.081644
Au 54.471750 62.746218 54.167060
Au 54.471750 62.746218 58.252476
Au 54.471750 62.746218 62.337888
Au 54.471750 62.746218 66.423304
Au 54.471750 62.746218 70.508719
Au 54.471750 66.831638 50.081644
Au 54.471750 66.831638 54.167060
Au 54.471750 66.831638 58.252476
Au 54.471750 66.831638 62.337888
Au 54.471750 66.831638 66.423304
Au 54.471750 70.917054 50.081644
Au 54.471750 70.917054 54.167060
Au 54.471750 70.917054 58.252476
Au 54.471750 70.917054 62.337888
Au 54.471750 75.002462 50.081644
Au 54.471750 75.002462 54.167060
Au 54.471750 75.002462 58.252476
Au 58.557162 50.489975 50.081644
Au 58.557162 50.489975 54.167060
Au 58.557162 50.489975 58.252476
Au 58.557162 50.489975 62.337888
Au 58.557162 50.489975 66.423304
Au 58.557162 50.489975 70.508719
Au 58.557162 50.489975 74.594135
Au 58.557162 54.575391 50.081644
Au 58.557162 54.575391 54.167060
Au 58.557162 54.575391 58.252476
Au 58.557162 54.575391 62.337888
Au 58.557162 54.575391 66.423304
Au 58.557162 54.575391 70.508719
Au 58.557162 54.575391 74.594135
Au 58.557162 58.660806 50.081644
Au 58.557162 58.660806 54.167060
Au 58.557162 58.660806 58.252476
Au 58.557162 58.660806 62.337888
Au 58.557162 58.660806 66.423304
Au 58.557162 58.660806 70.508719
Au 58.557162 62.746218 50.081644
Au 58.557162 62.746218 54.167060
Au 58.557162 62.746218 58.252476
Au 58.557162 62.746218 62.337888
Au 58.557162 62.746218 66.423304
Au 58.557162 66.831638 50.081644
Au 58.557162 66.831638 54.167060
Au 58.557162 66.831638 58.252476
Au 58.557162 66.831638 62.337888
Au 58.557162 70.917054 50.081644
Au 58.557162 70.917054 54.167060
Au 58.557162 70.917054 58.252476
Au 58.557162 75.002462 50.081644
Au 58.557162 75.002462 54.167060
Au 62.642577 50.489975 50.081644
Au 62.642577 50.489975 54.167060
Au 62.642577 50.489975 58.252476
Au 62.642577 50.489975 62.337888
Au 62.642577 50.489975 66.423304
Au 62.642577 50.489975 70.508719
Au 62.642577 50.489975 74.594135
Au 62.642577 54.575391 50.081644
Au 62.642577 54.575391 54.167060
Au 62.642577 54.575391 58.252476
Au 62.642577 54.575391 62.337888
Au 62.642577 54.575391 66.423304
Au 62.642577 54.575391 70.508719
Au 62.642577 58.660806 50.081644
Au 62.642577 58.660806 54.167060
Au 62.642577 58.660806 58.252476
Au 62.642577 58.660806 62.337888
Au 62.642577 58.660806 66.423304
Au 62.642577 62.746218 50.081644
Au 62.642577 62.746218 54.167060
Au 62.642577 62.746218 58.252476
Au 62.642577 62.746218 62.337888
Au 62.642577 66.831638 50.081644
Au 62.642577 66.831638 54.167060
Au 62.642577 66.831638 58.252476
Au 62.642577 70.917054 50.081644
Au 62.642577 70.917054 54.167060
Au 62.642577 75.002462 50.081644
Au 66.727993 50.489975 50.081644
Au 66.727993 50.489975 54.167060
Au 66.727993 50.489975 58.252476
Au 66.727993 50.489975 62.337888
Au 66.727993 50.489975 66.423304
Au 66.727993 50.489975 70.508719
Au 66.727993 54.575391 50.081644
Au 66.727993 54.575391 54.167060
Au 66.727993 54.575391 58.252476
Au 66.727993 54.575391 62.337888
Au 66.727993 54.575391 66.423304
Au 66.727993 58.660806 50.081644
Au 66.727993 58.660806 54.167060
Au 66.727993 58.660806 58.252476
Au 66.727993 58.660806 62.337888
Au 66.727993 62.746218 50.081644
Au 66.727993 62.746218 54.167060
Au 66.727993 62.746218 58.252476
Au 66.727993 66.831638 50.081644
Au 66.727993 66.831638 54.167060
Au 66.727993 70.917054 50.081644
Au 70.813409 50.489975 50.081644
Au 70.813409 50.489975 54.167060
Au 70.813409 50.489975 58.252476
Au 70.813409 50.489975 62.337888
Au 70.813409 50.489975 66.423304
Au 70.813409 54.575391 50.081644
Au 70.813409 54.575391 54.167060
Au 70.813409 54.575391 58.252476
Au 70.813409 54.575391 62.337888
Au 70.813409 58.660806 50.081644
Au 70.813409 58.660806 54.167060
Au 70.813409 58.660806 58.252476
Au 70.813409 62.746218 50.081644
Au 70.813409 62.746218 54.167060
Au 70.813409 66.831638 50.081644
Au 74.898825 50.489975 50.081644
Au 74.898825 50.489975 54.167060
Au 74.898825 50.489975 58.252476
Au 74.898825 50.489975 62.337888
Au 74.898825 54.575391 50.081644
Au 74.898825 54.575391 54.167060
Au 74.898825 54.575391 58.252476
Au 74.898825 58.660806 50.081644
Au 74.898825 58.660806 54.167060
Au 74.898825 62.746218 50.081644
Au 54.471750 52.532682 52.124353
Au 54.471750 52.532682 56.209768
Au 54.471750 52.532682 60.295180
Au 54.471750 52.532682 64.380600
Au 54.471750 52.532682 68.466008
Au 54.471750 52.532682 72.551424
Au 54.471750 56.618098 52.124353
Au 54.471750 56.618098 56.209768
Au 54.471750 56.618098 60.295180
Au 54.471750 56.618098 64.380600
Au 54.471750 56.618098 68.466008
Au 54.471750 56.618098 72.551424
Au 54.471750 60.703514 52.124353
Au 54.471750 60.703514 56.209768
Au 54.471750 60.703514 60.295180
Au 54.471750 60.703514 64.380600
Au 54.471750 60.703514 68.466008
Au 54.471750 60.703514 72.551424
Au 54.471750 64.788926 52.124353
Au 54.471750 64.788926 56.209768
Au 54.471750 64.788926 60.295180
Au 54.471750 64.788926 64.380600
Au 54.471750 64.788926 68.466008
Au 54.471750 68.874342 52.124353
Au 54.471750 68.874342 56.209768
Au 54.471750 68.874342 60.295180
Au 54.471750 68.874342 64.380600
Au 54.471750 72.959757 52.124353
Au 54.471750 72.959757 56.209768
Au 54.471750 72.959757 60.295180
Au 58.557162 52.532682 52.124353
Au 58.557162 52.532682 56.209768
Au 58.557162 52.532682 60.295180
Au 58.557162 52.532682 64.380600
Au 58.557162 52.532682 68.466008
Au 58.557162 52.532682 72.551424
Au 58.557162 56.618098 52.124353
Au 58.557162 56.618098 56.209768
Au 58.557162 56.618098 60.295180
Au 58.557162 56.618098 64.380600
Au 58.557162 56.618098 68.466008
Au 58.557162 56.618098 72.551424
Au 58.557162 60.703514 52.124353
Au 58.557162 60.703514 56.209768
Au 58.557162 60.703514 60.295180
Au 58.557162 60.703514 64.380600
Au 58.557162 60.703514 68.466008
Au 58.557162 64.788926 52.124353
Au 58.557162 64.788926 56.209768
Au 58.557162 64.788926 60.295180
Au 58.557162 64.788926 64.380600
Au 58.557162 68.874342 52.124353
Au 58.557162 68.874342 56.209768
Au 58.557162 68.874342 60.295180
Au 58.557162 72.959757 52.124353
Au 58.557162 72.959757 56.209768
Au 62.642577 52.532682 52.124353
Au 62.642577 52.532682 56.209768
Au 62.642577 52.532682 60.295180
Au 62.642577 52.532682 64.380600
Au 62.642577 52.532682 68.466008
Au 62.642577 52.532682 72.551424
Au 62.642577 56.618098 52.124353
Au 62.642577 56.618098 56.209768
Au 62.642577 56.618098 60.295180
Au 62.642577 56.618098 64.380600
Au 62.642577 56.618098 68.466008
Au 62.642577 60.703514 52.124353
Au 62.642577 60.703514 56.209768
Au 62.642577 60.703514 60.295180
Au 62.642577 60.703514 64.380600
Au 62.642577 64.788926 52.124353
Au 62.642577 64.788926 56.209768
Au 62.642577 64.788926 60.295180
Au 62.642577 68.874342 52.124353
Au 62.642577 68.874342 56.209768
Au 62.642577 72.959757 52.124353
Au 66.727993 52.532682 52.124353
Au 66.727993 52.532682 56.209768
Au 66.727993 52.532682 60.295180
Au 66.727993 52.532682 64.380600
Au 66.727993 52.532682 68.466008
Au 66.727993 56.618098 52.124353
Au 66.727993 56.618098 56.209768
Au 66.727993 56.618098 60.295180
Au 66.727993 56.618098 64.380600
Au 66.727993 60.703514 52.124353
Au 66.727993 60.703514 56.209768
Au 66.727993 60.703514 60.295180
Au 66.727993 64.788926 52.124353
Au 66.727993 64.788926 56.209768
Au 66.727993 68.874342 52.124353
Au 70.813409 52.532682 52.124353
Au 70.813409 52.532682 56.209768
Au 70.813409 52.532682 60.295180
Au 70.813409 52.532682 64.380600
Au 70.813409 56.618098 52.124353
Au 70.813409 56.618098 56.209768
Au 70.813409 56.618098 60.295180
Au 70.813409 60.703514 52.124353
Au 70.813409 60.703514 56.209768
Au 70.813409 64.788926 52.124353
Au 74.898825 52.532682 52.124353
Au 74.898825 52.532682 56.209768
Au 74.898825 52.532682 60.295180
Au 74.898825 56.618098 52.124353
Au 74.898825 56.618098 56.209768
Au 74.898825 60.703514 52.124353
Au 52.429042 50.489975 52.124353
Au 52.429042 50.489975 56.209768
Au 52.429042 50.489975 60.295180
Au 52.429042 50.489975 64.380600
Au 52.429042 50.489975 68.466008
Au 52.429042 50.489975 72.551424
Au 52.429042 54.575391 52.124353
Au 52.429042 54.575391 56.209768
Au 52.429042 54.575391 60.295180
Au 52.429042 54.575391 64.380600
Au 52.429042 54.575391 68.466008
Au 52.429042 54.575391 72.551424
Au 52.429042 58.660806 52.124353
Au 52.429042 58.660806 56.209768
Au 52.429042 58.660806 60.295180
Au 52.429042 58.660806 64.380600
Au 52.429042 58.660806 68.466008
Au 52.429042 58.660806 72.551424
Au 52.429042 62.746218 52.124353
Au 52.429042 62.746218 56.209768
Au 52.429042 62.746218 60.295180
Au 52.429042 62.746218 64.380600
Au 52.429042 62.746218 68.466008
Au 52.429042 62.746218 72.551424
Au 52.429042 66.831638 52.124353
Au 52.429042 66.831638 56.209768
Au 52.429042 66.831638 60.295180
Au 52.429042 66.831638 64.380600
Au 52.429042 66.831638 68.466008
Au 52.429042 70.917054 52.124353
Au 52.429042 70.917054 56.209768
Au 52.429042 70.917054 60.295180
Au 52.429042 70.917054 64.380600
Au 52.429042 75.002462 52.124353
Au 52.429042 75.002462 56.209768
Au 52.429042 75.002462 60.295180
Au 56.514454 50.489975 52.124353
Au 56.514454 50.489975 56.209768
Au 56.514454 50.489975 60.295180
Au 56.514454 50.489975 64.380600
Au 56.514454 50.489975 68.466008
Au 56.514454 50.489975 72.551424
Au 56.514454 54.575391 52.124353
Au 56.514454 54.575391 56.209768
Au 56.514454 54.575391 60.295180
Au 56.514454 54.575391 64.380600
Au 56.514454 54.575391 68.466008
Au 56.514454 54.575391 72.551424
Au 56.514454 58.660806 52.124353
Au 56.514454 58.660806 56.209768
Au 56.514454 58.660806 60.295180
Au 56.514454 58.660806 64.380600
Au 56.514454 58.660806 68.466008
Au 56.514454 58.660806 72.551424
Au 56.514454 62.746218 52.124353
Au 56.514454 62.746218 56.209768
Au 56.514454 62.746218 60.295180
Au 56.514454 62.746218 64.380600
Au 56.514454 62.746218 68.466008
Au 56.514454 66.831638 52.124353
Au 56.514454 66.831638 56.209768
Au 56.514454 66.831638 60.295180
Au 56.514454 66.831638 64.380600
Au 56.514454 70.917054 52.124353
Au 56.514454 70.917054 56.209768
Au 56.514454 70.917054 60.295180
Au 56.514454 75.002462 52.124353
Au 56.514454 75.002462 56.209768
Au 60.599870 50.489975 52.124353
Au 60.599870 50.489975 56.209768
Au 60.599870 50.489975 60.295180
Au 60.599870 50.489975 64.380600
Au 60.599870 50.489975 68.466008
Au 60.599870 50.489975 72.551424
Au 60.599870 54.575391 52.124353
Au 60.599870 54.575391 56.209768
Au 60.599870 54.575391 60.295180
Au 60.599870 54.575391 64.380600
Au 60.599870 54.575391 68.466008
Au 60.599870 54.575391 72.551424
Au 60.599870 58.660806 52.124353
Au 60.599870 58.660806 56.209768
Au 60.599870 58.660806 60.295180
Au 60.599870 58.660806 64.380600
Au 60.599870 58.660806 68.466008
Au 60.599870 62.746218 52.124353
Au 60.599870 62.746218 56.209768
Au 60.599870 62.746218 60.295180
Au 60.599870 62.746218 64.380600
Au 60.599870 66.831638 52.124353
Au 60.599870 66.831638 56.209768
Au 60.599870 66.831638 60.295180
Au 60.599870 70.917054 52.124353
Au 60.599870 70.917054 56.209768
Au 60.599870 75.002462 52.124353
Au 64.685290 50.489975 52.124353
Au 64.685290 50.489975 56.209768
Au 64.685290 50.489975 60.295180
Au 64.685290 50.489975 64.380600
Au 64.685290 50.489975 68.466008
Au 64.685290 50.489975 72.551424
Au 64.685290 54.575391 52.124353
Au 64.685290 54.575391 56.209768
Au 64.685290 54.575391 60.295180
Au 64.685290 54.575391 64.380600
Au 64.685290 54.575391 68.466008
Au 64.685290 58.660806 52.124353
Au 64.685290 58.660806 56.209768
Au 64.685290 58.660806 60.295180
Au 64.685290 58.660806 64.380600
Au 64.685290 62.746218 52.124353
Au 64.685290 62.746218 56.209768
Au 64.685290 62.746218 60.295180
Au 64.685290 66.831638 52.124353
Au 64.685290 66.831638 56.209768
Au 64.685290 70.917054 52.124353
Au 68.770697 50.489975 52.124353
Au 68.770697 50.489975 56.209768
Au 68.770697 50.489975 60.295180
Au 68.770697 50.489975 64.380600
Au 68.770697 50.489975 68.466008
Au 68.770697 54.575391 52.124353
Au 68.770697 54.575391 56.209768
Au 68.770697 54.575391 60.295180
Au 68.770697 54.575391 64.380600
Au 68.770697 58.660806 52.124353
Au 68.770697 58.660806 56.209768
Au 68.770697 58.660806 60.295180
Au 68.770697 62.746218 52.124353
Au 68.770697 62.746218 56.209768
Au 68.770697 66.831638 52.124353
Au 72.856112 50.489975 52.124353
Au 72.856112 50.489975 56.209768
Au 72.856112 50.489975 60.295180
Au 72.856112 50.489975 64.380600
Au 72.856112 54.575391 52.124353
Au 72.856112 54.575391 56.209768
Au 72.856112 54.575391 60.295180
Au 72.856112 58.660806 52.124353
Au 72.856112 58.660806 56.209768
Au 72.856112 62.746218 52.124353
Au 52.429042 52.532682 50.081644
Au 52.429042 52.532682 54.167060
Au 52.429042 52.532682 58.252476
Au 52.429042 52.532682 62.337888
Au 52.429042 52.532682 66.423304
Au 52.429042 52.532682 70.508719
Au 52.429042 52.532682 74.594135
Au 52.429042 56.618098 50.081644
Au 52.429042 56.618098 54.167060
Au 52.429042 56.618098 58.252476
Au 52.429042 56.618098 62.337888
Au 52.429042 56.618098 66.423304
Au 52.429042 56.618098 70.508719
Au 52.429042 56.618098 74.594135
Au 52.429042 60.703514 50.081644
Au 52.429042 60.703514 54.167060
Au 52.429042 60.703514 58.252476
Au 52.429042 60.703514 62.337888
Au 52.429042 60.703514 66.423304
Au 52.429042 60.703514 70.508719
Au 52.429042 60.703514 74.594135
Au 52.429042 64.788926 50.081644
Au 52.429042 64.788926 54.167060
Au 52.429042 64.788926 58.252476
Au 52.429042 64.788926 62.337888
Au 52.429042 64.788926 66.423304
Au 52.429042 64.788926 70.508719
Au 52.429042 68.874342 50.081644
Au 52.429042 68.874342 54.167060
Au 52.429042 68.874342 58.252476
Au 52.429042 68.874342 62.337888
Au 52.429042 68.874342 66.423304
Au 52.429042 72.959757 50.081644
Au 52.429042 72.959757 54.167060
Au 52.429042 72.959757 58.252476
Au 52.429042 72.959757 62.337888
Au 56.514454 52.532682 50.081644
Au 56.514454 52.532682 54.167060
Au 56.514454 52.532682 58.252476
Au 56.514454 52.532682 62.337888
Au 56.514454 52.532682 66.423304
Au 56.514454 52.532682 70.508719
Au 56.514454 52.532682 74.594135
Au 56.514454 56.618098 50.081644
Au 56.514454 56.618098 54.167060
Au 56.514454 56.618098 58.252476
Au 56.514454 56.618098 62.337888
Au 56.514454 56.618098 66.423304
Au 56.514454 56.618098 70.508719
Au 56.514454 56.618098 74.594135
Au 56.514454 60.703514 50.081644
Au 56.514454 60.703514 54.167060
Au 56.514454 60.703514 58.252476
Au 56.514454 60.703514 62.337888
Au 56.514454 60.703514 66.423304
Au 56.514454 60.703514 70.508719
Au 56.514454 64.788926 50.081644
Au 56.514454 64.788926 54.167060
Au 56.514454 64.788926 58.252476
Au 56.514454 64.788926 62.337888
Au 56.514454 64.788926 66.423304
Au 56.514454 68.874342 50.081644
Au 56.514454 68.874342 54.167060
Au 56.514454 68.874342 58.252476
Au 56.514454 68.874342 62.337888
Au 56.514454 72.959757 50.081644
Au 56.514454 72.959757 54.167060
Au 56.514454 72.959757 58.252476
Au 60.599870 52.532682 50.081644
Au 60.599870 52.532682 54.167060
Au 60.599870 52.532682 58.252476
Au 60.599870 52.532682 62.337888
Au 60.599870 52.532682 66.423304
Au 60.599870 52.532682 70.508719
Au 60.599870 52.532682 74.594135
Au 60.599870 56.618098 50.081644
Au 60.599870 56.618098 54.167060
Au 60.599870 56.618098 58.252476
Au 60.599870 56.618098 62.337888
Au 60.599870 56.618098 66.423304
Au 60.599870 56.618098 70.508719
Au 60.599870 60.703514 50.081644
Au 60.599870 60.703514 54.167060
Au 60.599870 60.703514 58.252476
Au 60.599870 60.703514 62.337888
Au 60.599870 60.703514 66.423304
Au 60.599870 64.788926 50.081644
Au 60.599870 64.788926 54.167060
Au 60.599870 64.788926 58.252476
Au 60.599870 64.788926 62.337888
Au 60.599870 68.874342 50.081644
Au 60.599870 68.874342 54.167060
Au 60.599870 68.874342 58.252476
Au 60.599870 72.959757 50.081644
Au 60.599870 72.959757 54.167060
Au 64.685290 52.532682 50.081644
Au 64.685290 52.532682 54.167060
Au 64.685290 52.532682 58.252476
Au 64.685290 52.532682 62.337888
Au 64.685290 52.532682 66.423304
Au 64.685290 52.532682 70.508719
Au 64.685290 56.618098 50.081644
Au 64.685290 56.618098 54.167060
Au 64.685290 56.618098 58.252476
Au 64.685290 56.618098 62.337888
Au 64.685290 56.618098 66.423304
Au 64.685290 60.703514 50.081644
Au 64.685290 60.703514 54.167060
Au 64.685290 60.703514 58.252476
Au 64.685290 60.703514 62.337888
Au 64.685290 64.788926 50.081644
Au 64.685290 64.788926 54.167060
Au 64.685290 64.788926 58.252476
Au 64.685290 68.874342 50.081644
Au 64.685290 68.874342 54.167060
Au 64.685290 72.959757 50.081644
Au 68.770697 52.532682 50.081644
Au 68.770697 52.532682 54.167060
Au 68.770697 52.532682 58.252476
Au 68.770697 52.532682 62.337888
Au 68.770697 52.532682 66.423304
Au 68.770697 56.618098 50.081644
Au 68.770697 56.618098 54.167060
Au 68.770697 56.618098 58.252476
Au 68.770697 56.618098 62.337888
Au 68.770697 60.703514 50.081644
Au 68.770697 60.703514 54.167060
Au 68.770697 60.703514 58.252476
Au 68.770697 64.788926 50.081644
Au 68.770697 64.788926 54.167060
Au 68.770697 68.874342 50.081644
Au 72.856112 52.532682 50.081644
Au 72.856112 52.532682 54.167060
Au 72.856112 52.532682 58.252476
Au 72.856112 52.532682 62.337888
Au 72.856112 56.618098 50.081644
Au 72.856112 56.618098 54.167060
Au 72.856112 56.618098 58.252476
Au 72.856112 60.703514 50.081644
Au 72.856112 60.703514 54.167060
Au 72.856112 64.788926 50.081644
Au 50.386334 54.575391 50.081644
Au 50.386334 54.575391 54.167060
Au 50.386334 54.575391 58.252476
Au 50.386334 54.575391 62.337888
Au 50.386334 54.575391 66.423304
Au 50.386334 54.575391 70.508719
Au 50.386334 54.575391 74.594135
Au 46.300918 54.575391 50.081644
Au 46.300918 54.575391 54.167060
Au 46.300918 54.575391 58.252476
Au 46.300918 54.575391 62.337888
Au 46.300918 54.575391 66.423304
Au 46.300918 54.575391 70.508719
Au 46.300918 54.575391 74.594135
Au 42.215502 54.575391 50.081644
Au 42.215502 54.575391 54.167060
Au 42.215502 54.575391 58.252476
Au 42.215502 54.575391 62.337888
Au 42.215502 54.575391 66.423304
Au 42.215502 54.575391 70.508719
Au 42.215502 54.575391 74.594135
Au 38.130086 54.575391 50.081644
Au 38.130086 54.575391 54.167060
Au 38.130086 54.575391 58.252476
Au 38.130086 54.575391 62.337888
Au 38.130086 54.575391 66.423304
Au 38.130086 54.575391 70.508719
Au 34.044674 54.575391 50.081644
Au 34.044674 54.575391 54.167060
Au 34.044674 54.575391 58.252476
Au 34.044674 54.575391 62.337888
Au 34.044674 54.575391 66.423304
Au 29.959259 54.575391 50.081644
Au 29.959259 54.575391 54.167060
Au 29.959259 54.575391 58.252476
Au 29.959259 54.575391 62.337888
Au 25.873843 54.575391 50.081644
Au 25.873843 54.575391 54.167060
Au 25.873843 54.575391 58.252476
Au 50.386334 58.660806 50.081644
Au 50.386334 58.660806 54.167060
Au 50.386334 58.660806 58.252476
Au 50.386334 58.660806 62.337888
Au 50.386334 58.660806 66.423304
Au 50.386334 58.660806 70.508719
Au 50.386334 58.660806 74.594135
Au 46.300918 58.660806 50.081644
Au 46.300918 58.660806 54.167060
Au 46.300918 58.660806 58.252476
Au 46.300918 58.660806 62.337888
Au 46.300918 58.660806 66.423304
Au 46.300918 58.660806 70.508719
Au 46.300918 58.660806 74.594135
Au 42.215502 58.660806 50.081644
Au 42.215502 58.660806 54.167060
Au 42.215502 58.660806 58.252476
Au 42.215502 58.660806 62.337888
Au 42.215502 58.660806 66.423304
Au 42.215502 58.660806 70.508719
Au 38.130086 58.660806 50.081644
Au 38.130086 58.660806 54.167060
Au 38.130086 58.660806 58.252476
Au 38.130086 58.660806 62.337888
Au 38.130086 58.660806 66.423304
Au 34.044674 58.660806 50.081644
Au 34.044674 58.660806 54.167060
Au 34.044674 58.660806 58.252476
Au 34.044674 58.660806 62.337888
Au 29.959259 58.660806 50.081644
Au 29.959259 58.660806 54.167060
Au 29.959259 58.660806 58.252476
Au 25.873843 58.660806 50.081644
Au 25.873843 58.660806 54.167060
Au 50.386334 62.746218 50.081644
Au 50.386334 62.746218 54.167060
Au 50.386334 62.746218 58.252476
Au 50.386334 62.746218 62.337888
Au 50.386334 62.746218 66.423304
Au 50.386334 62.746218 70.508719
Au 50.386334 62.746218 74.594135
Au 46.300918 62.746218 50.081644
Au 46.300918 62.746218 54.167060
Au 46.300918 62.746218 58.252476
Au 46.300918 62.746218 62.337888
Au 46.300918 62.746218 66.423304
Au 46.300918 62.746218 70.508719
Au 42.215502 62.746218 50.081644
Au 42.215502 62.746218 54.167060
Au 42.215502 62.746218 58.252476
Au 42.215502 62.746218 62.337888
Au 42.215502 62.746218 66.423304
Au 38.130086 62.746218 50.081644
Au 38.130086 62.746218 54.167060
Au 38.130086 62.746218 58.252476
Au 38.130086 62.746218 62.337888
Au 34.044674 62.746218 50.081644
Au 34.044674 62.746218 54.167060
Au 34.044674 62.746218 58.252476
Au 29.959259 62.746218 50.081644
Au 29.959259 62.746218 54.167060
Au 25.873843 62.746218 50.081644
Au 50.386334 66.831638 50.081644
Au 50.386334 66.831638 54.167060
Au 50.386334 66.831638 58.252476
Au 50.386334 66.831638 62.337888
Au 50.386334 66.831638 66.423304
Au 50.386334 66.831638 70.508719
Au 46.300918 66.831638 50.081644
Au 46.300918 66.831638 54.167060
Au 46.300918 66.831638 58.252476
Au 46.300918 66.831638 62.337888
Au 46.300918 66.831638 66.423304
Au 42.215502 66.831638 50.081644
Au 42.215502 66.831638 54.167060
Au 42.215502 66.831638 58.252476
Au 42.215502 66.831638 62.337888
Au 38.130086 66.831638 50.081644
Au 38.130086 66.831638 54.167060
Au 38.130086 66.831638 58.252476
Au 34.044674 66.831638 50.081644
Au 34.044674 66.831638 54.167060
Au 29.959259 66.831638 50.081644
Au 50.386334 70.917054 50.081644
Au 50.386334 70.917054 54.167060
Au 50.386334 70.917054 58.252476
Au 50.386334 70.917054 62.337888
Au 50.386334 70.917054 66.423304
Au 46.300918 70.917054 50.081644
Au 46.300918 70.917054 54.167060
Au 46.300918 70.917054 58.252476
Au 46.300918 70.917054 62.337888
Au 42.215502 70.917054 50.081644
Au 42.215502 70.917054 54.167060
Au 42.215502 70.917054 58.252476
Au 38.130086 70.917054 50.081644
Au 38.130086 70.917054 54.167060
Au 34.044674 70.917054 50.081644
Au 50.386334 75.002462 50.081644
Au 50.386334 75.002462 54.167060
Au 50.386334 75.002462 58.252476
Au 50.386334 75.002462 62.337888
Au 46.300918 75.002462 50.081644
Au 46.300918 75.002462 54.167060
Au 46.300918 75.002462 58.252476
Au 42.215502 75.002462 50.081644
Au 42.215502 75.002462 54.167060
Au 38.130086 75.002462 50.081644
Au 48.343626 54.575391 52.124353
Au 48.343626 54.575391 56.209768
Au 48.343626 54.575391 60.295180
Au 48.343626 54.575391 64.380600
Au 48.343626 54.575391 68.466008
Au 48.343626 54.575391 72.551424
Au 44.258211 54.575391 52.124353
Au 44.258211 54.575391 56.209768
Au 44.258211 54.575391 60.295180
Au 44.258211 54.575391 64.380600
Au 44.258211 54.575391 68.466008
Au 44.258211 54.575391 72.551424
Au 40.172795 54.575391 52.124353
Au 40.172795 54.575391 56.209768
Au 40.172795 54.575391 60.295180
Au 40.172795 54.575391 64.380600
Au 40.172795 54.575391 68.466008
Au 40.172795 54.575391 72.551424
Au 36.087383 54.575391 52.124353
Au 36.087383 54.575391 56.209768
Au 36.087383 54.575391 60.295180
Au 36.087383 54.575391 64.380600
Au 36.087383 54.575391 68.466008
Au 32.001965 54.575391 52.124353
Au 32.001965 54.575391 56.209768
Au 32.001965 54.575391 60.295180
Au 32.001965 54.575391 64.380600
Au 27.916551 54.575391 52.124353
Au 27.916551 54.575391 56.209768
Au 27.916551 54.575391 60.295180
Au 48.343626 58.660806 52.124353
Au 48.343626 58.660806 56.209768
Au 48.343626 58.660806 60.295180
Au 48.343626 58.660806 64.380600
Au 48.343626 58.660806 68.466008
Au 48.343626 58.660806 72.551424
Au 44.258211 58.660806 52.124353
Au 44.258211 58.660806 56.209768
Au 44.258211 58.660806 60.295180
Au 44.258211 58.660806 64.380600
Au 44.258211 58.660806 68.466008
Au 44.258211 58.660806 72.551424
Au 40.172795 58.660806 52.124353
Au 40.172795 58.660806 56.209768
Au 40.172795 58.660806 60.295180
Au 40.172795 58.660806 64.380600
Au 40.172795 58.660806 68.466008
Au 36.087383 58.660806 52.124353
Au 36.087383 58.660806 56.209768
Au 36.087383 58.660806 60.295180
Au 36.087383 58.660806 64.380600
Au 32.001965 58.660806 52.124353
Au 32.001965 58.660806 56.209768
Au 32.001965 58.660806 60.295180
Au 27.916551 58.660806 52.124353
Au 27.916551 58.660806 56.209768
Au 48.343626 62.746218 52.124353
Au 48.343626 62.746218 56.209768
Au 48.343626 62.746218 60.295180
Au 48.343626 62.746218 64.380600
Au 48.343626 62.746218 68.466008
Au 48.343626 62.746218 72.551424
Au 44.258211 62.746218 52.124353
Au 44.258211 62.746218 56.209768
Au 44.258211 62.746218 60.295180
Au 44.258211 62.746218 64.380600
Au 44.258211 62.746218 68.466008
Au 40.172795 62.746218 52.124353
Au 40.172795 62.746218 56.209768
Au 40.172795 62.746218 60.295180
Au 40.172795 62.746218 64.380600
Au 36.087383 62.746218 52.124353
Au 36.087383 62.746218 56.209768
Au 36.087383 62.746218 60.295180
Au 32.001965 62.746218 52.124353
Au 32.001965 62.746218 56.209768
Au 27.916551 62.746218 52.124353
Au 48.343626 66.831638 52.124353
Au 48.343626 66.831638 56.209768
Au 48.343626 66.831638 60.295180
Au 48.343626 66.831638 64.380600
Au 48.343626 66.831638 68.466008
Au 44.258211 66.831638 52.124353
Au 44.258211 66.831638 56.209768
Au 44.258211 66.831638 60.295180
Au 44.258211 66.831638 64.380600
Au 40.172795 66.831638 52.124353
Au 40.172795 66.831638 56.209768
Au 40.172795 66.831638 60.295180
Au 36.087383 66.831638 52.124353
Au 36.087383 66.831638 56.209768
Au 32.001965 66.831638 52.124353
Au 48.343626 70.917054 52.124353
Au 48.343626 70.917054 56.209768
Au 48.343626 70.917054 60.295180
Au 48.343626 70.917054 64.380600
Au 44.258211 70.917054 52.124353
Au 44.258211 70.917054 56.209768
Au 44.258211 70.917054 60.295180
Au 40.172795 70.917054 52.124353
Au 40.172795 70.917054 56.209768
Au 36.087383 70.917054 52.124353
Au 48.343626 75.002462 52.124353
Au 48.343626 75.002462 56.209768
Au 48.343626 75.002462 60.295180
Au 44.258211 75.002462 52.124353
Au 44.258211 75.002462 56.209768
Au 40.172795 75.002462 52.124353
Au 50.386334 52.532682 52.124353
Au 50.386334 52.532682 56.209768
Au 50.386334 52.532682 60.295180
Au 50.386334 52.532682 64.380600
Au 50.386334 52.532682 68.466008
Au 50.386334 52.532682 72.551424
Au 46.300918 52.532682 52.124353
Au 46.300918 52.532682 56.209768
Au 46.300918 52.532682 60.295180
Au 46.300918 52.532682 64.380600
Au 46.300918 52.532682 68.466008
Au 46.300918 52.532682 72.551424
Au 42.215502 52.532682 52.124353
Au 42.215502 52.532682 56.209768
Au 42.215502 52.532682 60.295180
Au 42.215502 52.532682 64.380600
Au 42.215502 52.532682 68.466008
Au 42.215502 52.532682 72.551424
Au 38.130086 52.532682 52.124353
Au 38.130086 52.532682 56.209768
Au 38.130086 52.532682 60.295180
Au 38.130086 52.532682 64.380600
Au 38.130086 52.532682 68.466008
Au 38.130086 52.532682 72.551424
Au 34.044674 52.532682 52.124353
Au 34.044674 52.532682 56.209768
Au 34.044674 52.532682 60.295180
Au 34.044674 52.532682 64.380600
Au 34.044674 52.532682 68.466008
Au 29.959259 52.532682 52.124353
Au 29.959259 52.532682 56.209768
Au 29.959259 52.532682 60.295180
Au 29.959259 52.532682 64.380600
Au 25.873843 52.532682 52.124353
Au 25.873843 52.532682 56.209768
Au 25.873843 52.532682 60.295180
Au 50.386334 56.618098 52.124353
Au 50.386334 56.618098 56.209768
Au 50.386334 56.618098 60.295180
Au 50.386334 56.618098 64.380600
Au 50.386334 56.618098 68.466008
Au 50.386334 56.618098 72.551424
Au 46.300918 56.618098 52.124353
Au 46.300918 56.618098 56.209768
Au 46.300918 56.618098 60.295180
Au 46.300918 56.618098 64.380600
Au 46.300918 56.618098 68.466008
Au 46.300918 56.618098 72.551424
Au 42.215502 56.618098 52.124353
Au 42.215502 56.618098 56.209768
Au 42.215502 56.618098 60.295180
Au 42.215502 56.618098 64.380600
Au 42.215502 56.618098 68.466008
Au 42.215502 56.618098 72.551424
Au 38.130086 56.618098 52.124353
Au 38.130086 56.618098 56.209768
Au 38.130086 56.618098 60.295180
Au 38.130086 56.618098 64.380600
Au 38.130086 56.618098 68.466008
Au 34.044674 56.618098 52.124353
Au 34.044674 56.618098 56.209768
Au 34.044674 56.618098 60.295180
Au 34.044674 56.618098 64.380600
Au 29.959259 56.618098 52.124353
Au 29.959259 56.618098 56.209768
Au 29.959259 56.618098 60.295180
Au 25.873843 56.618098 52.124353
Au 25.873843 56.618098 56.209768
Au 50.386334 60.703514 52.124353
Au 50.386334 60.703514 56.209768
Au 50.386334 60.703514 60.295180
Au 50.386334 60.703514 64.380600
Au 50.386334 60.703514 68.466008
Au 50.386334 60.703514 72.551424
Au 46.300918 60.703514 52.124353
Au 46.300918 60.703514 56.209768
Au 46.300918 60.703514 60.295180
Au 46.300918 60.703514 64.380600
Au 46.300918 60.703514 68.466008
Au 46.300918 60.703514 72.551424
Au 42.215502 60.703514 52.124353
Au 42.215502 60.703514 56.209768
Au 42.215502 60.703514 60.295180
Au 42.215502 60.703514 64.380600
Au 42.215502 60.703514 68.466008
Au 38.130086 60.703514 52.124353
Au 38.130086 60.703514 56.209768
Au 38.130086 60.703514 60.295180
Au 38.130086 60.703514 64.380600
Au 34.044674 60.703514 52.124353
Au 34.044674 60.703514 56.209768
Au 34.044674 60.703514 60.295180
Au 29.959259 60.703514 52.124353
Au 29.959259 60.703514 56.209768
Au 25.873843 60.703514 52.124353
Au 50.386334 64.788926 52.124353
Au 50.386334 64.788926 56.209768
Au 50.386334 64.788926 60.295180
Au 50.386334 64.788926 64.380600
Au 50.386334 64.788926 68.466008
Au 50.386334 64.788926 72.551424
Au 46.300918 64.788926 52.124353
Au 46.300918 64.788926 56.209768
Au 46.300918 64.788926 60.295180
Au 46.300918 64.788926 64.380600
Au 46.300918 64.788926 68.466008
Au 42.215502 64.788926 52.124353
Au 42.215502 64.788926 56.209768
Au 42.215502 64.788926 60.295180
Au 42.215502 64.788926 64.380600
Au 38.130086 64.788926 52.124353
Au 38.130086 64.788926 56.209768
Au 38.130086 64.788926 60.295180
Au 34.044674 64.788926 52.124353
Au 34.044674 64.788926 56.209768
Au 29.959259 64.788926 52.124353
Au 50.386334 68.874342 52.124353
Au 50.386334 68.874342 56.209768
Au 50.386334 68.874342 60.295180
Au 50.386334 68.874342 64.380600
Au 50.386334 68.874342 68.466008
Au 46.300918 68.874342 52.124353
Au 46.300918 68.874342 56.209768
Au 46.300918 68.874342 60.295180
Au 46.300918 68.874342 64.380600
Au 42.215502 68.874342 52.124353
Au 42.215502 68.874342 56.209768
Au 42.215502 68.874342 60.295180
Au 38.130086 68.874342 52.124353
Au 38.130086 68.874342 56.209768
Au 34.044674 68.874342 52.124353
Au 50.386334 72.959757 52.124353
Au 50.386334 72.959757 56.209768
Au 50.386334 72.959757 60.295180
Au 50.386334 72.959757 64.380600
Au 46.300918 72.959757 52.124353
Au 46.300918 72.959757 56.209768
Au 46.300918 72.959757 60.295180
Au 42.215502 72.959757 52.124353
Au 42.215502 72.959757 56.209768
Au 38.130086 72.959757 52.124353
Au 48.343626 52.532682 50.081644
Au 48.343626 52.532682 54.167060
Au 48.343626 52.532682 58.252476
Au 48.343626 52.532682 62.337888
Au 48.343626 52.532682 66.423304
Au 48.343626 52.532682 70.508719
Au 48.343626 52.532682 74.594135
Au 44.258211 52.532682 50.081644
Au 44.258211 52.532682 54.167060
Au 44.258211 52.532682 58.252476
Au 44.258211 52.532682 62.337888
Au 44.258211 52.532682 66.423304
Au 44.258211 52.532682 70.508719
Au 44.258211 52.532682 74.594135
Au 40.172795 52.532682 50.081644
Au 40.172795 52.532682 54.167060
Au 40.172795 52.532682 58.252476
Au 40.172795 52.532682 62.337888
Au 40.172795 52.532682 66.423304
Au 40.172795 52.532682 70.508719
Au 40.172795 52.532682 74.594135
Au 36.087383 52.532682 50.081644
Au 36.087383 52.532682 54.167060
Au 36.087383 52.532682 58.252476
Au 36.087383 52.532682 62.337888
Au 36.087383 52.532682 66.423304
Au 36.087383 52.532682 70.508719
Au 32.001965 52.532682 50.081644
Au 32.001965 52.532682 54.167060
Au 32.001965 52.532682 58.252476
Au 32.001965 52.532682 62.337888
Au 32.001965 52.532682 66.423304
Au 27.916551 52.532682 50.081644
Au 27.916551 52.532682 54.167060
Au 27.916551 52.532682 58.252476
Au 27.916551 52.532682 62.337888
Au 48.343626 56.618098 50.081644
Au 48.343626 56.618098 54.167060
Au 48.343626 56.618098 58.252476
Au 48.343626 56.618098 62.337888
Au 48.343626 56.618098 66.423304
Au 48.343626 56.618098 70.508719
Au 48.343626 56.618098 74.594135
Au 44.258211 56.618098 50.081644
Au 44.258211 56.618098 54.167060
Au 44.258211 56.618098 58.252476
Au 44.258211 56.618098 62.337888
Au 44.258211 56.618098 66.423304
Au 44.258211 56.618098 70.508719
Au 44.258211 56.618098 74.594135
Au 40.172795 56.618098 50.081644
Au 40.172795 56.618098 54.167060
Au 40.172795 56.618098 58.252476
Au 40.172795 56.618098 62.337888
Au 40.172795 56.618098 66.423304
Au 40.172795 56.618098 70.508719
Au 36.087383 56.618098 50.081644
Au 36.087383 56.618098 54.167060
Au 36.087383 56.618098 58.252476
Au 36.087383 56.618098 62.337888
Au 36.087383 56.618098 66.423304
Au 32.001965 56.618098 50.081644
Au 32.001965 56.618098 54.167060
Au 32.001965 56.618098 58.252476
Au 32.001965 56.618098 62.337888
Au 27.916551 56.618098 50.081644
Au 27.916551 56.618098 54.167060
Au 27.916551 56.618098 58.252476
Au 48.343626 60.703514 50.081644
Au 48.343626 60.703514 54.167060
Au 48.343626 60.703514 58.252476
Au 48.343626 60.703514 62.337888
Au 48.343626 60.703514 66.423304
Au 48.343626 60.703514 70.508719
Au 48.343626 60.703514 74.594135
Au 44.258211 60.703514 50.081644
Au 44.258211 60.703514 54.167060
Au 44.258211 60.703514 58.252476
Au 44.258211 60.703514 62.337888
Au 44.258211 60.703514 66.423304
Au 44.258211 60.703514 70.508719
Au 40.172795 60.703514 50.081644
Au 40.172795 60.703514 54.167060
Au 40.172795 60.703514 58.252476
Au 40.172795 60.703514 62.337888
Au 40.172795 60.703514 66.423304
Au 36.087383 60.703514 50.081644
Au 36.087383 60.703514 54.167060
Au 36.087383 60.703514 58.252476
Au 36.087383 60.703514 62.337888
Au 32.001965 60.703514 50.081644
Au 32.001965 60.703514 54.167060
Au 32.001965 60.703514 58.252476
Au 27.916551 60.703514 50.081644
Au 27.916551 60.703514 54.167060
Au 48.343626 64.788926 50.081644
Au 48.343626 64.788926 54.167060
Au 48.343626 64.788926 58.252476
Au 48.343626 64.788926 62.337888
Au 48.343626 64.788926 66.423304
Au 48.343626 64.788926 70.508719
Au 44.258211 64.788926 50.081644
Au 44.258211 64.788926 54.167060
Au 44.258211 64.788926 58.252476
Au 44.258211 64.788926 62.337888
Au 44.258211 64.788926 66.423304
Au 40.172795 64.788926 50.081644
Au 40.172795 64.788926 54.167060
Au 40.172795 64.788926 58.252476
Au 40.172795 64.788926 62.337888
Au 36.087383 64.788926 50.081644
Au 36.087383 64.788926 54.167060
Au 36.087383 64.788926 58.252476
Au 32.001965 64.788926 50.081644
Au 32.001965 64.788926 54.167060
Au 27.916551 64.788926 50.081644
Au 48.343626 68.874342 50.081644
Au 48.343626 68.874342 54.167060
Au 48.343626 68.874342 58.252476
Au 48.343626 68.874342 62.337888
Au 48.343626 68.874342 66.423304
Au 44.258211 68.874342 50.081644
Au 44.258211 68.874342 54.167060
Au 44.258211 68.874342 58.252476
Au 44.258211 68.874342 62.337888
Au 40.172795 68.874342 50.081644
Au 40.172795 68.874342 54.167060
Au 40.172795 68.874342 58.252476
Au 36.087383 68.874342 50.081644
Au 36.087383 68.874342 54.167060
Au 32.001965 68.874342 50.081644
Au 48.343626 72.959757 50.081644
Au 48.343626 72.959757 54.167060
Au 48.343626 72.959757 58.252476
Au 48.343626 72.959757 62.337888
Au 44.258211 72.959757 50.081644
Au 44.258211 72.959757 54.167060
Au 44.258211 72.959757 58.252476
Au 40.172795 72.959757 50.081644
Au 40.172795 72.959757 54.167060
Au 36.087383 72.959757 50.081644
Au 46.300918 50.489975 50.081644
Au 46.300918 50.489975 54.167060
Au 46.300918 50.489975 58.252476
Au 46.300918 50.489975 62.337888
Au 46.300918 50.489975 66.423304
Au 46.300918 50.489975 70.508719
Au 46.300918 50.489975 74.594135
Au 46.300918 46.404559 50.081644
Au 46.300918 46.404559 54.167060
Au 46.300918 46.404559 58.252476
Au 46.300918 46.404559 62.337888
Au 46.300918 46.404559 66.423304
Au 46.300918 46.404559 70.508719
Au 46.300918 46.404559 74.594135
Au 46.300918 42.319143 50.081644
Au 46.300918 42.319143 54.167060
Au 46.300918 42.319143 58.252476
Au 46.300918 42.319143 62.337888
Au 46.300918 42.319143 66.423304
Au 46.300918 42.319143 70.508719
Au 46.300918 42.319143 74.594135
Au 46.300918 38.233731 50.081644
Au 46.300918 38.233731 54.167060
Au 46.300918 38.233731 58.252476
Au 46.300918 38.233731 62.337888
Au 46.300918 38.233731 66.423304
Au 46.300918 38.233731 70.508719
Au 46.300918 34.148315 50.081644
Au 46.300918 34.148315 54.167060
Au 46.300918 34.148315 58.252476
Au 46.300918 34.148315 62.337888
Au 46.300918 34.148315 66.423304
Au 46.300918 30.062900 50.081644
Au 46.300918 30.062900 54.167060
Au 46.300918 30.062900 58.252476
Au 46.300918 30.062900 62.337888
Au 46.300918 25.977486 50.081644
Au 46.300918 25.977486 54.167060
Au 46.300918 25.977486 58.252476
Au 42.215502 50.489975 50.081644
Au 42.215502 50.489975 54.167060
Au 42.215502 50.489975 58.252476
Au 42.215502 50.489975 62.337888
Au 42.215502 50.489975 66.423304
Au 42.215502 50.489975 70.508719
Au 42.215502 50.489975 74.594135
Au 42.215502 46.404559 50.081644
Au 42.215502 46.404559 54.167060
Au 42.215502 46.404559 58.252476
Au 42.215502 46.404559 62.337888
Au 42.215502 46.404559 66.423304
Au 42.215502 46.404559 70.508719
Au 42.215502 46.404559 74.594135
Au 42.215502 42.319143 50.081644
Au 42.215502 42.319143 54.167060
Au 42.215502 42.319143 58.252476
Au 42.215502 42.319143 62.337888
Au 42.215502 42.319143 66.423304
Au 42.215502 42.319143 70.508719
Au 42.215502 38.233731 50.081644
Au 42.215502 38.233731 54.167060
Au 42.215502 38.233731 58.252476
Au 42.215502 38.233731 62.337888
Au 42.215502 38.233731 66.423304
Au 42.215502 34.148315 50.081644
Au 42.215502 34.148315 54.167060
Au 42.215502 34.148315 58.252476
Au 42.215502 34.148315 62.337888
Au 42.215502 30.062900 50.081644
Au 42.215502 30.062900 54.167060
Au 42.215502 30.062900 58.252476
Au 42.215502 25.977486 50.081644
Au 42.215502 25.977486 54.167060
Au 38.130086 50.489975 50.081644
Au 38.130086 50.489975 54.167060
Au 38.130086 50.489975 58.252476
Au 38.130086 50.489975 62.337888
Au 38.130086 50.489975 66.423304
Au 38.130086 50.489975 70.508719
Au 38.130086 50.489975 74.594135
Au 38.130086 46.404559 50.081644
Au 38.130086 46.404559 54.167060
Au 38.130086 46.404559 58.252476
Au 38.130086 46.404559 62.337888
Au 38.130086 46.404559 66.423304
Au 38.130086 46.404559 70.508719
Au 38.130086 42.319143 50.081644
Au 38.130086 42.319143 54.167060
Au 38.130086 42.319143 58.252476
Au 38.130086 42.319143 62.337888
Au 38.130086 42.319143 66.423304
Au 38.130086 38.233731 50.081644
Au 38.130086 38.233731 54.167060
Au 38.130086 38.233731 58.252476
Au 38.130086 38.233731 62.337888
Au 38.130086 34.148315 50.081644
Au 38.130086 34.148315 54.167060
Au 38.130086 34.148315 58.252476
Au 38.130086 30.062900 50.081644
Au 38.130086 30.062900 54.167060
Au 38.130086 25.977486 50.081644
Au 34.044674 50.489975 50.081644
Au 34.044674 50.489975 54.167060
Au 34.044674 50.489975 58.252476
Au 34.044674 50.489975 62.337888
Au 34.044674 50.489975 66.423304
Au 34.044674 50.489975 70.508719
Au 34.044674 46.404559 50.081644
Au 34.044674 46.404559 54.167060
Au 34.044674 46.404559 58.252476
Au 34.044674 46.404559 62.337888
Au 34.044674 46.404559 66.423304
Au 34.044674 42.319143 50.081644
Au 34.044674 42.319143 54.167060
Au 34.044674 42.319143 58.252476
Au 34.044674 42.319143 62.337888
Au 34.044674 38.233731 50.081644
Au 34.044674 38.233731 54.167060
Au 34.044674 38.233731 58.252476
Au 34.044674 34.148315 50.081644
Au 34.044674 34.148315 54.167060
Au 34.044674 30.062900 50.081644
Au 29.959259 50.489975 50.081644
Au 29.959259 50.489975 54.167060
Au 29.959259 50.489975 58.252476
Au 29.959259 50.489975 62.337888
Au 29.959259 50.489975 66.423304
Au 29.959259 46.404559 50.081644
Au 29.959259 46.404559 54.167060
Au 29.959259 46.404559 58.252476
Au 29.959259 46.404559 62.337888
Au 29.959259 42.319143 50.081644
Au 29.959259 42.319143 54.167060
Au 29.959259 42.319143 58.252476
Au 29.959259 38.233731 50.081644
Au 29.959259 38.233731 54.167060
Au 29.959259 34.148315 50.081644
Au 25.873843 50.489975 50.081644
Au 25.873843 50.489975 54.167060
Au 25.873843 50.489975 58.252476
Au 25.873843 50.489975 62.337888
Au 25.873843 46.404559 50.081644
Au 25.873843 46.404559 54.167060
Au 25.873843 46.404559 58.252476
Au 25.873843 42.319143 50.081644
Au 25.873843 42.319143 54.167060
Au 25.873843 38.233731 50.081644
Au 46.300918 48.447266 52.124353
Au 46.300918 48.447266 56.209768
Au 46.300918 48.447266 60.295180
Au 46.300918 48.447266 64.380600
Au 46.300918 48.447266 68.466008
Au 46.300918 48.447266 72.551424
Au 46.300918 44.361851 52.124353
Au 46.300918 44.361851 56.209768
Au 46.300918 44.361851 60.295180
Au 46.300918 44.361851 64.380600
Au 46.300918 44.361851 68.466008
Au 46.300918 44.361851 72.551424
Au 46.300918 40.276439 52.124353
Au 46.300918 40.276439 56.209768
Au 46.300918 40.276439 60.295180
Au 46.300918 40.276439 64.380600
Au 46.300918 40.276439 68.466008
Au 46.300918 40.276439 72.551424
Au 46.300918 36.191023 52.124353
Au 46.300918 36.191023 56.209768
Au 46.300918 36.191023 60.295180
Au 46.300918 36.191023 64.380600
Au 46.300918 36.191023 68.466008
Au 46.300918 32.105607 52.124353
Au 46.300918 32.105607 56.209768
Au 46.300918 32.105607 60.295180
Au 46.300918 32.105607 64.380600
Au 46.300918 28.020191 52.124353
Au 46.300918 28.020191 56.209768
Au 46.300918 28.020191 60.295180
Au 42.215502 48.447266 52.124353
Au 42.215502 48.447266 56.209768
Au 42.215502 48.447266 60.295180
Au 42.215502 48.447266 64.380600
Au 42.215502 48.447266 68.466008
Au 42.215502 48.447266 72.551424
Au 42.215502 44.361851 52.124353
Au 42.215502 44.361851 56.209768
Au 42.215502 44.361851 60.295180
Au 42.215502 44.361851 64.380600
Au 42.215502 44.361851 68.466008
Au 42.215502 44.361851 72.551424
Au 42.215502 40.276439 52.124353
Au 42.215502 40.276439 56.209768
Au 42.215502 40.276439 60.295180
Au 42.215502 40.276439 64.380600
Au 42.215502 40.276439 68.466008
Au 42.215502 36.191023 52.124353
Au 42.215502 36.191023 56.209768
Au 42.215502 36.191023 60.295180
Au 42.215502 36.191023 64.380600
Au 42.215502 32.105607 52.124353
Au 42.215502 32.105607 56.209768
Au 42.215502 32.105607 60.295180
Au 42.215502 28.020191 52.124353
Au 42.215502 28.020191 56.209768
Au 38.130086 48.447266 52.124353
Au 38.130086 48.447266 56.209768
Au 38.130086 48.447266 60.295180
Au 38.130086 48.447266 64.380600
Au 38.130086 48.447266 68.466008
Au 38.130086 48.447266 72.551424
Au 38.130086 44.361851 52.124353
Au 38.130086 44.361851 56.209768
Au 38.130086 44.361851 60.295180
Au 38.130086 44.361851 64.380600
Au 38.130086 44.361851 68.466008
Au 38.130086 40.276439 52.124353
Au 38.130086 40.276439 56.209768
Au 38.130086 40.276439 60.295180
Au 38.130086 40.276439 64.380600
Au 38.130086 36.191023 52.124353
Au 38.130086 36.191023 56.209768
Au 38.130086 36.191023 60.295180
Au 38.130086 32.105607 52.124353
Au 38.130086 32.105607 56.209768
Au 38.130086 28.020191 52.124353
Au 34.044674 48.447266 52.124353
Au 34.044674 48.447266 56.209768
Au 34.044674 48.447266 60.295180
Au 34.044674 48.447266 64.380600
Au 34.044674 48.447266 68.466008
Au 34.044674 44.361851 52.124353
Au 34.044674 44.361851 56.209768
Au 34.044674 44.361851 60.295180
Au 34.044674 44.361851 64.380600
Au 34.044674 40.276439 52.124353
Au 34.044674 40.276439 56.209768
Au 34.044674 40.276439 60.295180
Au 34.044674 36.191023 52.124353
Au 34.044674 36.191023 56.209768
Au 34.044674 32.105607 52.124353
Au 29.959259 48.447266 52.124353
Au 29.959259 48.447266 56.209768
Au 29.959259 48.447266 60.295180
Au 29.959259 48.447266 64.380600
Au 29.959259 44.361851 52.124353
Au 29.959259 44.361851 56.209768
Au 29.959259 44.361851 60.295180
Au 29.959259 40.276439 52.124353
Au 29.959259 40.276439 56.209768
Au 29.959259 36.191023 52.124353
Au 25.873843 48.447266 52.124353
Au 25.873843 48.447266 56.209768
Au 25.873843 48.447266 60.295180
Au 25.873843 44.361851 52.124353
Au 25.873843 44.361851 56.209768
Au 25.873843 40.276439 52.124353
Au 48.343626 50.489975 52.124353
Au 48.343626 50.489975 56.209768
Au 48.343626 50.489975 60.295180
Au 48.343626 50.489975 64.380600
Au 48.343626 50.489975 68.466008
Au 48.343626 50.489975 72.551424
Au 48.343626 46.404559 52.124353
Au 48.343626 46.404559 56.209768
Au 48.343626 46.404559 60.295180
Au 48.343626 46.404559 64.380600
Au 48.343626 46.404559 68.466008
Au 48.343626 46.404559 72.551424
Au 48.343626 42.319143 52.124353
Au 48.343626 42.319143 56.209768
Au 48.343626 42.319143 60.295180
Au 48.343626 42.319143 64.380600
Au 48.343626 42.319143 68.466008
Au 48.343626 42.319143 72.551424
Au 48.343626 38.233731 52.124353
Au 48.343626 38.233731 56.209768
Au 48.343626 38.233731 60.295180
Au 48.343626 38.233731 64.380600
Au 48.343626 38.233731 68.466008
Au 48.343626 38.233731 72.551424
Au 48.343626 34.148315 52.124353
Au 48.343626 34.148315 56.209768
Au 48.343626 34.148315 60.295180
Au 48.343626 34.148315 64.380600
Au 48.343626 34.148315 68.466008
Au 48.343626 30.062900 52.124353
Au 48.343626 30.062900 56.209768
Au 48.343626 30.062900 60.295180
Au 48.343626 30.062900 64.380600
Au 48.343626 25.977486 52.124353
Au 48.343626 25.977486 56.209768
Au 48.343626 25.977486 60.295180
Au 44.258211 50.489975 52.124353
Au 44.258211 50.489975 56.209768
Au 44.258211 50.489975 60.295180
Au 44.258211 50.489975 64.380600
Au 44.258211 50.489975 68.466008
Au 44.258211 50.489975 72.551424
Au 44.258211 46.404559 52.124353
Au 44.258211 46.404559 56.209768
Au 44.258211 46.404559 60.295180
Au 44.258211 46.404559 64.380600
Au 44.258211 46.404559 68.466008
Au 44.258211 46.404559 72.551424
Au 44.258211 42.319143 52.124353
Au 44.258211 42.319143 56.209768
Au 44.258211 42.319143 60.295180
Au 44.258211 42.319143 64.380600
Au 44.258211 42.319143 68.466008
Au 44.258211 42.319143 72.551424
Au 44.258211 38.233731 52.124353
Au 44.258211 38.233731 56.209768
Au 44.258211 38.233731 60.295180
Au 44.258211 38.233731 64.380600
Au 44.258211 38.233731 68.466008
Au 44.258211 34.148315 52.124353
Au 44.258211 34.148315 56.209768
Au 44.258211 34.148315 60.295180
Au 44.258211 34.148315 64.380600
Au 44.258211 30.062900 52.124353
Au 44.258211 30.062900 56.209768
Au 44.258211 30.062900 60.295180
Au 44.258211 25.977486 52.124353
Au 44.258211 25.977486 56.209768
Au 40.172795 50.489975 52.124353
Au 40.172795 50.489975 56.209768
Au 40.172795 50.489975 60.295180
Au 40.172795 50.489975 64.380600
Au 40.172795 50.489975 68.466008
Au 40.172795 50.489975 72.551424
Au 40.172795 46.404559 52.124353
Au 40.172795 46.404559 56.209768
Au 40.172795 46.404559 60.295180
Au 40.172795 46.404559 64.380600
Au 40.172795 46.404559 68.466008
Au 40.172795 46.404559 72.551424
Au 40.172795 42.319143 52.124353
Au 40.172795 42.319143 56.209768
Au 40.172795 42.319143 60.295180
Au 40.172795 42.319143 64.380600
Au 40.172795 42.319143 68.466008
Au 40.172795 38.233731 52.124353
Au 40.172795 38.233731 56.209768
Au 40.172795 38.233731 60.295180
Au 40.172795 38.233731 64.380600
Au 40.172795 34.148315 52.124353
Au 40.172795 34.148315 56.209768
Au 40.172795 34.148315 60.295180
Au 40.172795 30.062900 52.124353
Au 40.172795 30.062900 56.209768
Au 40.172795 25.977486 52.124353
Au 36.087383 50.489975 52.124353
Au 36.087383 50.489975 56.209768
Au 36.087383 50.489975 60.295180
Au 36.087383 50.489975 64.380600
Au 36.087383 50.489975 68.466008
Au 36.087383 50.489975 72.551424
Au 36.087383 46.404559 52.124353
Au 36.087383 46.404559 56.209768
Au 36.087383 46.404559 60.295180
Au 36.087383 46.404559 64.380600
Au 36.087383 46.404559 68.466008
Au 36.087383 42.319143 52.124353
Au 36.087383 42.319143 56.209768
Au 36.087383 42.319143 60.295180
Au 36.087383 42.319143 64.380600
Au 36.087383 38.233731 52.124353
Au 36.087383 38.233731 56.209768
Au 36.087383 38.233731 60.295180
Au 36.087383 34.148315 52.124353
Au 36.087383 34.148315 56.209768
Au 36.087383 30.062900 52.124353
Au 32.001965 50.489975 52.124353
Au 32.001965 50.489975 56.209768
Au 32.001965 50.489975 60.295180
Au 32.001965 50.489975 64.380600
Au 32.001965 50.489975 68.466008
Au 32.001965 46.404559 52.124353
Au 32.001965 46.404559 56.209768
Au 32.001965 46.404559 60.295180
Au 32.001965 46.404559 64.380600
Au 32.001965 42.319143 52.124353
Au 32.001965 42.319143 56.209768
Au 32.001965 42.319143 60.295180
Au 32.001965 38.233731 52.124353
Au 32.001965 38.233731 56.209768
Au 32.001965 34.148315 52.124353
Au 27.916551 50.489975 52.124353
Au 27.916551 50.489975 56.209768
Au 27.916551 50.489975 60.295180
Au 27.916551 50.489975 64.380600
Au 27.916551 46.404559 52.124353
Au 27.916551 46.404559 56.209768
Au 27.916551 46.404559 60.295180
Au 27.916551 42.319143 52.124353
Au 27.916551 42.319143 56.209768
Au 27.916551 38.233731 52.124353
Au 48.343626 48.447266 50.081644
Au 48.343626 48.447266 54.167060
Au 48.343626 48.447266 58.252476
Au 48.343626 48.447266 62.337888
Au 48.343626 48.447266 66.423304
Au 48.343626 48.447266 70.508719
Au 48.343626 48.447266 74.594135
Au 48.343626 44.361851 50.081644
Au 48.343626 44.361851 54.167060
Au 48.343626 44.361851 58.252476
Au 48.343626 44.361851 62.337888
Au 48.343626 44.361851 66.423304
Au 48.343626 44.361851 70.508719
Au 48.343626 44.361851 74.594135
Au 48.343626 40.276439 50.081644
Au 48.343626 40.276439 54.167060
Au 48.343626 40.276439 58.252476
Au 48.343626 40.276439 62.337888
Au 48.343626 40.276439 66.423304
Au 48.343626 40.276439 70.508719
Au 48.343626 40.276439 74.594135
Au 48.343626 36.191023 50.081644
Au 48.343626 36.191023 54.167060
Au 48.343626 36.191023 58.252476
Au 48.343626 36.191023 62.337888
Au 48.343626 36.191023 66.423304
Au 48.343626 36.191023 70.508719
Au 48.343626 32.105607 50.081644
Au 48.343626 32.105607 54.167060
Au 48.343626 32.105607 58.252476
Au 48.343626 32.105607 62.337888
Au 48.343626 32.105607 66.423304
Au 48.343626 28.020191 50.081644
Au 48.343626 28.020191 54.167060
Au 48.343626 28.020191 58.252476
Au 48.343626 28.020191 62.337888
Au 44.258211 48.447266 50.081644
Au 44.258211 48.447266 54.167060
Au 44.258211 48.447266 58.252476
Au 44.258211 48.447266 62.337888
Au 44.258211 48.447266 66.423304
Au 44.258211 48.447266 70.508719
Au 44.258211 48.447266 74.594135
Au 44.258211 44.361851 50.081644
Au 44.258211 44.361851 54.167060
Au 44.258211 44.361851 58.252476
Au 44.258211 44.361851 62.337888
Au 44.258211 44.361851 66.423304
Au 44.258211 44.361851 70.508719
Au 44.258211 44.361851 74.594135
Au 44.258211 40.276439 50.081644
Au 44.258211 40.276439 54.167060
Au 44.258211 40.276439 58.252476
Au 44.258211 40.276439 62.337888
Au 44.258211 40.276439 66.423304
Au 44.258211 40.276439 70.508719
Au 44.258211 36.191023 50.081644
Au 44.258211 36.191023 54.167060
Au 44.258211 36.191023 58.252476
Au 44.258211 36.191023 62.337888
Au 44.258211 36.191023 66.423304
Au 44.258211 32.105607 50.081644
Au 44.258211 32.105607 54.167060
Au 44.258211 32.105607 58.252476
Au 44.258211 32.105607 62.337888
Au 44.258211 28.020191 50.081644
Au 44.258211 28.020191 54.167060
Au 44.258211 28.020191 58.252476
Au 40.172795 48.447266 50.081644
Au 40.172795 48.447266 54.167060
Au 40.172795 48.447266 58.252476
Au 40.172795 48.447266 62.337888
Au 40.172795 48.447266 66.423304
Au 40.172795 48.447266 70.508719
Au 40.172795 48.447266 74.594135
Au 40.172795 44.361851 50.081644
Au 40.172795 44.361851 54.167060
Au 40.172795 44.361851 58.252476
Au 40.172795 44.361851 62.337888
Au 40.172795 44.361851 66.423304
Au 40.172795 44.361851 70.508719
Au 40.172795 40.276439 50.081644
Au 40.172795 40.276439 54.167060
Au 40.172795 40.276439 58.252476
Au 40.172795 40.276439 62.337888
Au 40.172795 40.276439 66.423304
Au 40.172795 36.191023 50.081644
Au 40.172795 36.191023 54.167060
Au 40.172795 36.191023 58.252476
Au 40.172795 36.191023 62.337888
Au 40.172795 32.105607 50.081644
Au 40.172795 32.105607 54.167060
Au 40.172795 32.105607 58.252476
Au 40.172795 28.020191 50.081644
Au 40.172795 28.020191 54.167060
Au 36.087383 48.447266 50.081644
Au 36.087383 48.447266 54.167060
Au 36.087383 48.447266 58.252476
Au 36.087383 48.447266 62.337888
Au 36.087383 48.447266 66.423304
Au 36.087383 48.447266 70.508719
Au 36.087383 44.361851 50.081644
Au 36.087383 44.361851 54.167060
Au 36.087383 44.361851 58.252476
Au 36.087383 44.361851 62.337888
Au 36.087383 44.361851 66.423304
Au 36.087383 40.276439 50.081644
Au 36.087383 40.276439 54.167060
Au 36.087383 40.276439 58.252476
Au 36.087383 40.276439 62.337888
Au 36.087383 36.191023 50.081644
Au 36.087383 36.191023 54.167060
Au 36.087383 36.191023 58.252476
Au 36.087383 32.105607 50.081644
Au 36.087383 32.105607 54.167060
Au 36.087383 28.020191 50.081644
Au 32.001965 48.447266 50.081644
Au 32.001965 48.447266 54.167060
Au 32.001965 48.447266 58.252476
Au 32.001965 48.447266 62.337888
Au 32.001965 48.447266 66.423304
Au 32.001965 44.361851 50.081644
Au 32.001965 44.361851 54.167060
Au 32.001965 44.361851 58.252476
Au 32.001965 44.361851 62.337888
Au 32.001965 40.276439 50.081644
Au 32.001965 40.276439 54.167060
Au 32.001965 40.276439 58.252476
Au 32.001965 36.191023 50.081644
Au 32.001965 36.191023 54.167060
Au 32.001965 32.105607 50.081644
Au 27.916551 48.447266 50.081644
Au 27.916551 48.447266 54.167060
Au 27.916551 48.447266 58.252476
Au 27.916551 48.447266 62.337888
Au 27.916551 44.361851 50.081644
Au 27.916551 44.361851 54.167060
Au 27.916551 44.361851 58.252476
Au 27.916551 40.276439 50.081644
Au 27.916551 40.276439 54.167060
Au 27.916551 36.191023 50.081644
Au 50.386334 46.404559 50.081644
Au 50.386334 46.404559 54.167060
Au 50.386334 46.404559 58.252476
Au 50.386334 46.404559 62.337888
Au 50.386334 46.404559 66.423304
Au 50.386334 46.404559 70.508719
Au 50.386334 46.404559 74.594135
Au 54.471750 46.404559 50.081644
Au 54.471750 46.404559 54.167060
Au 54.471750 46.404559 58.252476
Au 54.471750 46.404559 62.337888
Au 54.471750 46.404559 66.423304
Au 54.471750 46.404559 70.508719
Au 54.471750 46.404559 74.594135
Au 58.557162 46.404559 50.081644
Au 58.557162 46.404559 54.167060
Au 58.557162 46.404559 58.252476
Au 58.557162 46.404559 62.337888
Au 58.557162 46.404559 66.423304
Au 58.557162 46.404559 70.508719
Au 58.557162 46.404559 74.594135
Au 62.642577 46.404559 50.081644
Au 62.642577 46.404559 54.167060
Au 62.642577 46.404559 58.252476
Au 62.642577 46.404559 62.337888
Au 62.642577 46.404559 66.423304
Au 62.642577 46.404559 70.508719
Au 66.727993 46.404559 50.081644
Au 66.727993 46.404559 54.167060
Au 66.727993 46.404559 58.252476
Au 66.727993 46.404559 62.337888
Au 66.727993 46.404559 66.423304
Au 70.813409 46.404559 50.081644
Au 70.813409 46.404559 54.167060
Au 70.813409 46.404559 58.252476
Au 70.813409 46.404559 62.337888
Au 74.898825 46.404559 50.081644
Au 74.898825 46.404559 54.167060
Au 74.898825 46.404559 58.252476
Au 50.386334 42.319143 50.081644
Au 50.386334 42.319143 54.167060
Au 50.386334 42.319143 58.252476
Au 50.386334 42.319143 62.337888
Au 50.386334 42.319143 66.423304
Au 50.386334 42.319143 70.508719
Au 50.386334 42.319143 74.594135
Au 54.471750 42.319143 50.081644
Au 54.471750 42.319143 54.167060
Au 54.471750 42.319143 58.252476
Au 54.471750 42.319143 62.337888
Au 54.471750 42.319143 66.423304
Au 54.471750 42.319143 70.508719
Au 54.471750 42.319143 74.594135
Au 58.557162 42.319143 50.081644
Au 58.557162 42.319143 54.167060
Au 58.557162 42.319143 58.252476
Au 58.557162 42.319143 62.337888
Au 58.557162 42.319143 66.423304
Au 58.557162 42.319143 70.508719
Au 62.642577 42.319143 50.081644
Au 62.642577 42.319143 54.167060
Au 62.642577 42.319143 58.252476
Au 62.642577 42.319143 62.337888
Au 62.642577 42.319143 66.423304
Au 66.727993 42.319143 50.081644
Au 66.727993 42.319143 54.167060
Au 66.727993 42.319143 58.252476
Au 66.727993 42.319143 62.337888
Au 70.813409 42.319143 50.081644
Au 70.813409 42.319143 54.167060
Au 70.813409 42.319143 58.252476
Au 74.898825 42.319143 50.081644
Au 74.898825 42.319143 54.167060
Au 50.386334 38.233731 50.081644
Au 50.386334 38.233731 54.167060
Au 50.386334 38.233731 58.252476
Au 50.386334 38.233731 62.337888
Au 50.386334 38.233731 66.423304
Au 50.386334 38.233731 70.508719
Au 50.386334 38.233731 74.594135
Au 54.471750 38.233731 50.081644
Au 54.471750 38.233731 54.167060
Au 54.471750 38.233731 58.252476
Au 54.471750 38.233731 62.337888
Au 54.471750 38.233731 66.423304
Au 54.471750 38.233731 70.508719
Au 58.557162 38.233731 50.081644
Au 58.557162 38.233731 54.167060
Au 58.557162 38.233731 58.252476
Au 58.557162 38.233731 62.337888
Au 58.557162 38.233731 66.423304
Au 62.642577 38.233731 50.081644
Au 62.642577 38.233731 54.167060
Au 62.642577 38.233731 58.252476
Au 62.642577 38.233731 62.337888
Au 66.727993 38.233731 50.081644
Au 66.727993 38.233731 54.167060
Au 66.727993 38.233731 58.252476
Au 70.813409 38.233731 50.081644
Au 70.813409 38.233731 54.167060
Au 74.898825 38.233731 50.081644
Au 50.386334 34.148315 50.081644
Au 50.386334 34.148315 54.167060
Au 50.386334 34.148315 58.252476
Au 50.386334 34.148315 62.337888
Au 50.386334 34.148315 66.423304
Au 50.386334 34.148315 70.508719
Au 54.471750 34.148315 50.081644
Au 54.471750 34.148315 54.167060
Au 54.471750 34.148315 58.252476
Au 54.471750 34.148315 62.337888
Au 54.471750 34.148315 66.423304
Au 58.557162 34.148315 50.081644
Au 58.557162 34.148315 54.167060
Au 58.557162 34.148315 58.252476
Au 58.557162 34.148315 62.337888
Au 62.642577 34.148315 50.081644
Au 62.642577 34.148315 54.167060
Au 62.642577 34.148315 58.252476
Au 66.727993 34.148315 50.081644
Au 66.727993 34.148315 54.167060
Au 70.813409 34.148315 50.081644
Au 50.386334 30.062900 50.081644
Au 50.386334 30.062900 54.167060
Au 50.386334 30.062900 58.252476
Au 50.386334 30.062900 62.337888
Au 50.386334 30.062900 66.423304
Au 54.471750 30.062900 50.081644
Au 54.471750 30.062900 54.167060
Au 54.471750 30.062900 58.252476
Au 54.471750 30.062900 62.337888
Au 58.557162 30.062900 50.081644
Au 58.557162 30.062900 54.167060
Au 58.557162 30.062900 58.252476
Au 62.642577 30.062900 50.081644
Au 62.642577 30.062900 54.167060
Au 66.727993 30.062900 50.081644
Au 50.386334 25.977486 50.081644
Au 50.386334 25.977486 54.167060
Au 50.386334 25.977486 58.252476
Au 50.386334 25.977486 62.337888
Au 54.471750 25.977486 50.081644
Au 54.471750 25.977486 54.167060
Au 54.471750 25.977486 58.252476
Au 58.557162 25.977486 50.081644
Au 58.557162 25.977486 54.167060
Au 62.642577 25.977486 50.081644
Au 52.429042 46.404559 52.124353
Au 52.429042 46.404559 56.209768
Au 52.429042 46.404559 60.295180
Au 52.429042 46.404559 64.380600
Au 52.429042 46.404559 68.466008
Au 52.429042 46.404559 72.551424
Au 56.514454 46.404559 52.124353
Au 56.514454 46.404559 56.209768
Au 56.514454 46.404559 60.295180
Au 56.514454 46.404559 64.380600
Au 56.514454 46.404559 68.466008
Au 56.514454 46.404559 72.551424
Au 60.599870 46.404559 52.124353
Au 60.599870 46.404559 56.209768
Au 60.599870 46.404559 60.295180
Au 60.599870 46.404559 64.380600
Au 60.599870 46.404559 68.466008
Au 60.599870 46.404559 72.551424
Au 64.685290 46.404559 52.124353
Au 64.685290 46.404559 56.209768
Au 64.685290 46.404559 60.295180
Au 64.685290 46.404559 64.380600
Au 64.685290 46.404559 68.466008
Au 68.770697 46.404559 52.124353
Au 68.770697 46.404559 56.209768
Au 68.770697 46.404559 60.295180
Au 68.770697 46.404559 64.380600
Au 72.856112 46.404559 52.124353
Au 72.856112 46.404559 56.209768
Au 72.856112 46.404559 60.295180
Au 52.429042 42.319143 52.124353
Au 52.429042 42.319143 56.209768
Au 52.429042 42.319143 60.295180
Au 52.429042 42.319143 64.380600
Au 52.429042 42.319143 68.466008
Au 52.429042 42.319143 72.551424
Au 56.514454 42.319143 52.124353
Au 56.514454 42.319143 56.209768
Au 56.514454 42.319143 60.295180
Au 56.514454 42.319143 64.380600
Au 56.514454 42.319143 68.466008
Au 56.514454 42.319143 72.551424
Au 60.599870 42.319143 52.124353
Au 60.599870 42.319143 56.209768
Au 60.599870 42.319143 60.295180
Au 60.599870 42.319143 64.380600
Au 60.599870 42.319143 68.466008
Au 64.685290 42.319143 52.124353
Au 64.685290 42.319143 56.209768
Au 64.685290 42.319143 60.295180
Au 64.685290 42.319143 64.380600
Au 68.770697 42.319143 52.124353
Au 68.770697 42.319143 56.209768
Au 68.770697 42.319143 60.295180
Au 72.856112 42.319143 52.124353
Au 72.856112 42.319143 56.209768
Au 52.429042 38.233731 52.124353
Au 52.429042 38.233731 56.209768
Au 52.429042 38.233731 60.295180
Au 52.429042 38.233731 64.380600
Au 52.429042 38.233731 68.466008
Au 52.429042 38.233731 72.551424
Au 56.514454 38.233731 52.124353
Au 56.514454 38.233731 56.209768
Au 56.514454 38.233731 60.295180
Au 56.514454 38.233731 64.380600
Au 56.514454 38.233731 68.466008
Au 60.599870 38.233731 52.124353
Au 60.599870 38.233731 56.209768
Au 60.599870 38.233731 60.295180
Au 60.599870 38.233731 64.380600
Au 64.685290 38.233731 52.124353
Au 64.685290 38.233731 56.209768
Au 64.685290 38.233731 60.295180
Au 68.770697 38.233731 52.124353
Au 68.770697 38.233731 56.209768
Au 72.856112 38.233731 52.124353
Au 52.429042 34.148315 52.124353
Au 52.429042 34.148315 56.209768
Au 52.429042 34.148315 60.295180
Au 52.429042 34.148315 64.380600
Au 52.429042 34.148315 68.466008
Au 56.514454 34.148315 52.124353
Au 56.514454 34.148315 56.209768
Au 56.514454 34.148315 60.295180
Au 56.514454 34.148315 64.380600
Au 60.599870 34.148315 52.124353
Au 60.599870 34.148315 56.209768
Au 60.599870 34.148315 60.295180
Au 64.685290 34.148315 52.124353
Au 64.685290 34.148315 56.209768
Au 68.770697 34.148315 52.124353
Au 52.429042 30.062900 52.124353
Au 52.429042 30.062900 56.209768
Au 52.429042 30.062900 60.295180
Au 52.429042 30.062900 64.380600
Au 56.514454 30.062900 52.124353
Au 56.514454 30.062900 56.209768
Au 56.514454 30.062900 60.295180
Au 60.599870 30.062900 52.124353
Au 60.599870 30.062900 56.209768
Au 64.685290 30.062900 52.124353
Au 52.429042 25.977486 52.124353
Au 52.429042 25.977486 56.209768
Au 52.429042 25.977486 60.295180
Au 56.514454 25.977486 52.124353
Au 56.514454 25.977486 56.209768
Au 60.599870 25.977486 52.124353
Au 50.386334 48.447266 52.124353
Au 50.386334 48.447266 56.209768
Au 50.386334 48.447266 60.295180
Au 50.386334 48.447266 64.380600
Au 50.386334 48.447266 68.466008
Au 50.386334 48.447266 72.551424
Au 54.471750 48.447266 52.124353
Au 54.471750 48.447266 56.209768
Au 54.471750 48.447266 60.295180
Au 54.471750 48.447266 64.380600
Au 54.471750 48.447266 68.466008
Au 54.471750 48.447266 72.551424
Au 58.557162 48.447266 52.124353
Au 58.557162 48.447266 56.209768
Au 58.557162 48.447266 60.295180
Au 58.557162 48.447266 64.380600
Au 58.557162 48.447266 68.466008
Au 58.557162 48.447266 72.551424
Au 62.642577 48.447266 52.124353
Au 62.642577 48.447266 56.209768
Au 62.642577 48.447266 60.295180
Au 62.642577 48.447266 64.380600
Au 62.642577 48.447266 68.466008
Au 62.642577 48.447266 72.551424
Au 66.727993 48.447266 52.124353
Au 66.727993 48.447266 56.209768
Au 66.727993 48.447266 60.295180
Au 66.727993 48.447266 64.380600
Au 66.727993 48.447266 68.466008
Au 70.813409 48.447266 52.124353
Au 70.813409 48.447266 56.209768
Au 70.813409 48.447266 60.295180
Au 70.813409 48.447266 64.380600
Au 74.898825 48.447266 52.124353
Au 74.898825 48.447266 56.209768
Au 74.898825 48.447266 60.295180
Au 50.386334 44.361851 52.124353
Au 50.386334 44.361851 56.209768
Au 50.386334 44.361851 60.295180
Au 50.386334 44.361851 64.380600
Au 50.386334 44.361851 68.466008
Au 50.386334 44.361851 72.551424
Au 54.471750 44.361851 52.124353
Au 54.471750 44.361851 56.209768
Au 54.471750 44.361851 60.295180
Au 54.471750 44.361851 64.380600
Au 54.471750 44.361851 68.466008
Au 54.471750 44.361851 72.551424
Au 58.557162 44.361851 52.124353
Au 58.557162 44.361851 56.209768
Au 58.557162 44.361851 60.295180
Au 58.557162 44.361851 64.380600
Au 58.557162 44.361851 68.466008
Au 58.557162 44.361851 72.551424
Au 62.642577 44.361851 52.124353
Au 62.642577 44.361851 56.209768
Au 62.642577 44.361851 60.295180
Au 62.642577 44.361851 64.380600
Au 62.642577 44.361851 68.466008
Au 66.727993 44.361851 52.124353
Au 66.727993 44.361851 56.209768
Au 66.727993 44.361851 60.295180
Au 66.727993 44.361851 64.380600
Au 70.813409 44.361851 52.124353
Au 70.813409 44.361851 56.209768
Au 70.813409 44.361851 60.295180
Au 74.898825 44.361851 52.124353
Au 74.898825 44.361851 56.209768
Au 50.386334 40.276439 52.124353
Au 50.386334 40.276439 56.209768
Au 50.386334 40.276439 60.295180
Au 50.386334 40.276439 64.380600
Au 50.386334 40.276439 68.466008
Au 50.386334 40.276439 72.551424
Au 54.471750 40.276439 52.124353
Au 54.471750 40.276439 56.209768
Au 54.471750 40.276439 60.295180
Au 54.471750 40.276439 64.380600
Au 54.471750 40.276439 68.466008
Au 54.471750 40.276439 72.551424
Au 58.557162 40.276439 52.124353
Au 58.557162 40.276439 56.209768
Au 58.557162 40.276439 60.295180
Au 58.557162 40.276439 64.380600
Au 58.557162 40.276439 68.466008
Au 62.642577 40.276439 52.124353
Au 62.642577 40.276439 56.209768
Au 62.642577 40.276439 60.295180
Au 62.642577 40.276439 64.380600
Au 66.727993 40.276439 52.124353
Au 66.727993 40.276439 56.209768
Au 66.727993 40.276439 60.295180
Au 70.813409 40.276439 52.124353
Au 70.813409 40.276439 56.209768
Au 74.898825 40.276439 52.124353
Au 50.386334 36.191023 52.124353
Au 50.386334 36.191023 56.209768
Au 50.386334 36.191023 60.295180
Au 50.386334 36.191023 64.380600
Au 50.386334 36.191023 68.466008
Au 50.386334 36.191023 72.551424
Au 54.471750 36.191023 52.124353
Au 54.471750 36.191023 56.209768
Au 54.471750 36.191023 60.295180
Au 54.471750 36.191023 64.380600
Au 54.471750 36.191023 68.466008
Au 58.557162 36.191023 52.124353
Au 58.557162 36.191023 56.209768
Au 58.557162 36.191023 60.295180
Au 58.557162 36.191023 64.380600
Au 62.642577 36.191023 52.124353
Au 62.642577 36.191023 56.209768
Au 62.642577 36.191023 60.295180
Au 66.727993 36.191023 52.124353
Au 66.727993 36.191023 56.209768
Au 70.813409 36.191023 52.124353
Au 50.386334 32.105607 52.124353
Au 50.386334 32.105607 56.209768
Au 50.386334 32.105607 60.295180
Au 50.386334 32.105607 64.380600
Au 50.386334 32.105607 68.466008
Au 54.471750 32.105607 52.124353
Au 54.471750 32.105607 56.209768
Au 54.471750 32.105607 60.295180
Au 54.471750 32.105607 64.380600
Au 58.557162 32.105607 52.124353
Au 58.557162 32.105607 56.209768
Au 58.557162 32.105607 60.295180
Au 62.642577 32.105607 52.124353
Au 62.642577 32.105607 56.209768
Au 66.727993 32.105607 52.124353
Au 50.386334 28.020191 52.124353
Au 50.386334 28.020191 56.209768
Au 50.386334 28.020191 60.295180
Au 50.386334 28.020191 64.380600
Au 54.471750 28.020191 52.124353
Au 54.471750 28.020191 56.209768
Au 54.471750 28.020191 60.295180
Au 58.557162 28.020191 52.124353
Au 58.557162 28.020191 56.209768
Au 62.642577 28.020191 52.124353
Au 52.429042 48.447266 50.081644
Au 52.429042 48.447266 54.167060
Au 52.429042 48.447266 58.252476
Au 52.429042 48.447266 62.337888
Au 52.429042 48.447266 66.423304
Au 52.429042 48.447266 70.508719
Au 52.429042 48.447266 74.594135
Au 56.514454 48.447266 50.081644
Au 56.514454 48.447266 54.167060
Au 56.514454 48.447266 58.252476
Au 56.514454 48.447266 62.337888
Au 56.514454 48.447266 66.423304
Au 56.514454 48.447266 70.508719
Au 56.514454 48.447266 74.594135
Au 60.599870 48.447266 50.081644
Au 60.599870 48.447266 54.167060
Au 60.599870 48.447266 58.252476
Au 60.599870 48.447266 62.337888
Au 60.599870 48.447266 66.423304
Au 60.599870 48.447266 70.508719
Au 60.599870 48.447266 74.594135
Au 64.685290 48.447266 50.081644
Au 64.685290 48.447266 54.167060
Au 64.685290 48.447266 58.252476
Au 64.685290 48.447266 62.337888
Au 64.685290 48.447266 66.423304
Au 64.685290 48.447266 70.508719
Au 68.770697 48.447266 50.081644
Au 68.770697 48.447266 54.167060
Au 68.770697 48.447266 58.252476
Au 68.770697 48.447266 62.337888
Au 68.770697 48.447266 66.423304
Au 72.856112 48.447266 50.081644
Au 72.856112 48.447266 54.167060
Au 72.856112 48.447266 58.252476
Au 72.856112 48.447266 62.337888
Au 52.429042 44.361851 50.081644
Au 52.429042 44.361851 54.167060
Au 52.429042 44.361851 58.252476
Au 52.429042 44.361851 62.337888
Au 52.429042 44.361851 66.423304
Au 52.429042 44.361851 70.508719
Au 52.429042 44.361851 74.594135
Au 56.514454 44.361851 50.081644
Au 56.514454 44.361851 54.167060
Au 56.514454 44.361851 58.252476
Au 56.514454 44.361851 62.337888
Au 56.514454 44.361851 66.423304
Au 56.514454 44.361851 70.508719
Au 56.514454 44.361851 74.594135
Au 60.599870 44.361851 50.081644
Au 60.599870 44.361851 54.167060
Au 60.599870 44.361851 58.252476
Au 60.599870 44.361851 62.337888
Au 60.599870 44.361851 66.423304
Au 60.599870 44.361851 70.508719
Au 64.685290 44.361851 50.081644
Au 64.685290 44.361851 54.167060
Au 64.685290 44.361851 58.252476
Au 64.685290 44.361851 62.337888
Au 64.685290 44.361851 66.423304
Au 68.770697 44.361851 50.081644
Au 68.770697 44.361851 54.167060
Au 68.770697 44.361851 58.252476
Au 68.770697 44.361851 62.337888
Au 72.856112 44.361851 50.081644
Au 72.856112 44.361851 54.167060
Au 72.856112 44.361851 58.252476
Au 52.429042 40.276439 50.081644
Au 52.429042 40.276439 54.167060
Au 52.429042 40.276439 58.252476
Au 52.429042 40.276439 62.337888
Au 52.429042 40.276439 66.423304
Au 52.429042 40.276439 70.508719
Au 52.429042 40.276439 74.594135
Au 56.514454 40.276439 50.081644
Au 56.514454 40.276439 54.167060
Au 56.514454 40.276439 58.252476
Au 56.514454 40.276439 62.337888
Au 56.514454 40.276439 66.423304
Au 56.514454 40.276439 70.508719
Au 60.599870 40.276439 50.081644
Au 60.599870 40.276439 54.167060
Au 60.599870 40.276439 58.252476
Au 60.599870 40.276439 62.337888
Au 60.599870 40.276439 66.423304
Au 64.685290 40.276439 50.081644
Au 64.685290 40.276439 54.167060
Au 64.685290 40.276439 58.252476
Au 64.685290 40.276439 62.337888
Au 68.770697 40.276439 50.081644
Au 68.770697 40.276439 54.167060
Au 68.770697 40.276439 58.252476
Au 72.856112 40.276439 50.081644
Au 72.856112 40.276439 54.167060
Au 52.429042 36.191023 50.081644
Au 52.429042 36.191023 54.167060
Au 52.429042 36.191023 58.252476
Au 52.429042 36.191023 62.337888
Au 52.429042 36.191023 66.423304
Au 52.429042 36.191023 70.508719
Au 56.514454 36.191023 50.081644
Au 56.514454 36.191023 54.167060
Au 56.514454 36.191023 58.252476
Au 56.514454 36.191023 62.337888
Au 56.514454 36.191023 66.423304
Au 60.599870 36.191023 50.081644
Au 60.599870 36.191023 54.167060
Au 60.599870 36.191023 58.252476
Au 60.599870 36.191023 62.337888
Au 64.685290 36.191023 50.081644
Au 64.685290 36.191023 54.167060
Au 64.685290 36.191023 58.252476
Au 68.770697 36.191023 50.081644
Au 68.770697 36.191023 54.167060
Au 72.856112 36.191023 50.081644
Au 52.429042 32.105607 50.081644
Au 52.429042 32.105607 54.167060
Au 52.429042 32.105607 58.252476
Au 52.429042 32.105607 62.337888
Au 52.429042 32.105607 66.423304
Au 56.514454 32.105607 50.081644
Au 56.514454 32.105607 54.167060
Au 56.514454 32.105607 58.252476
Au 56.514454 32.105607 62.337888
Au 60.599870 32.105607 50.081644
Au 60.599870 32.105607 54.167060
Au 60.599870 32.105607 58.252476
Au 64.685290 32.105607 50.081644
Au 64.685290 32.105607 54.167060
Au 68.770697 32.105607 50.081644
Au 52.429042 28.020191 50.081644
Au 52.429042 28.020191 54.167060
Au 52.429042 28.020191 58.252476
Au 52.429042 28.020191 62.337888
Au 56.514454 28.020191 50.081644
Au 56.514454 28.020191 54.167060
Au 56.514454 28.020191 58.252476
Au 60.599870 28.020191 50.081644
Au 60.599870 28.020191 54.167060
Au 64.685290 28.020191 50.081644
Au 50.386334 50.489975 50.081644
Au 50.386334 50.489975 54.167060
Au 50.386334 50.489975 58.252476
Au 50.386334 50.489975 62.337888
Au 50.386334 50.489975 66.423304
Au 50.386334 50.489975 70.508719
Au 50.386334 50.489975 74.594135
Au 46.300918 50.489975 45.996228
Au 46.300918 50.489975 41.910813
Au 46.300918 50.489975 37.825401
Au 46.300918 50.489975 33.739985
Au 46.300918 50.489975 29.654569
Au 46.300918 50.489975 25.569153
Au 46.300918 46.404559 45.996228
Au 46.300918 46.404559 41.910813
Au 46.300918 46.404559 37.825401
Au 46.300918 46.404559 33.739985
Au 46.300918 46.404559 29.654569
Au 46.300918 46.404559 25.569153
Au 46.300918 42.319143 45.996228
Au 46.300918 42.319143 41.910813
Au 46.300918 42.319143 37.825401
Au 46.300918 42.319143 33.739985
Au 46.300918 42.319143 29.654569
Au 46.300918 42.319143 25.569153
Au 46.300918 38.233731 45.996228
Au 46.300918 38.233731 41.910813
Au 46.300918 38.233731 37.825401
Au 46.300918 38.233731 33.739985
Au 46.300918 38.233731 29.654569
Au 46.300918 34.148315 45.996228
Au 46.300918 34.148315 41.910813
Au 46.300918 34.148315 37.825401
Au 46.300918 34.148315 33.739985
Au 46.300918 30.062900 45.996228
Au 46.300918 30.062900 41.910813
Au 46.300918 30.062900 37.825401
Au 46.300918 25.977486 45.996228
Au 46.300918 25.977486 41.910813
Au 42.215502 50.489975 45.996228
Au 42.215502 50.489975 41.910813
Au 42.215502 50.489975 37.825401
Au 42.215502 50.489975 33.739985
Au 42.215502 50.489975 29.654569
Au 42.215502 50.489975 25.569153
Au 42.215502 46.404559 45.996228
Au 42.215502 46.404559 41.910813
Au 42.215502 46.404559 37.825401
Au 42.215502 46.404559 33.739985
Au 42.215502 46.404559 29.654569
Au 42.215502 46.404559 25.569153
Au 42.215502 42.319143 45.996228
Au 42.215502 42.319143 41.910813
Au 42.215502 42.319143 37.825401
Au 42.215502 42.319143 33.739985
Au 42.215502 42.319143 29.654569
Au 42.215502 38.233731 45.996228
Au 42.215502 38.233731 41.910813
Au 42.215502 38.233731 37.825401
Au 42.215502 38.233731 33.739985
Au 42.215502 34.148315 45.996228
Au 42.215502 34.148315 41.910813
Au 42.215502 34.148315 37.825401
Au 42.215502 30.062900 45.996228
Au 42.215502 30.062900 41.910813
Au 42.215502 25.977486 45.996228
Au 38.130086 50.489975 45.996228
Au 38.130086 50.489975 41.910813
Au 38.130086 50.489975 37.825401
Au 38.130086 50.489975 33.739985
Au 38.130086 50.489975 29.654569
Au 38.130086 50.489975 25.569153
Au 38.130086 46.404559 45.996228
Au 38.130086 46.404559 41.910813
Au 38.130086 46.404559 37.825401
Au 38.130086 46.404559 33.739985
Au 38.130086 46.404559 29.654569
Au 38.130086 42.319143 45.996228
Au 38.130086 42.319143 41.910813
Au 38.130086 42.319143 37.825401
Au 38.130086 42.319143 33.739985
Au 38.130086 38.233731 45.996228
Au 38.130086 38.233731 41.910813
Au 38.130086 38.233731 37.825401
Au 38.130086 34.148315 45.996228
Au 38.130086 34.148315 41.910813
Au 38.130086 30.062900 45.996228
Au 34.044674 50.489975 45.996228
Au 34.044674 50.489975 41.910813
Au 34.044674 50.489975 37.825401
Au 34.044674 50.489975 33.739985
Au 34.044674 50.489975 29.654569
Au 34.044674 46.404559 45.996228
Au 34.044674 46.404559 41.910813
Au 34.044674 46.404559 37.825401
Au 34.044674 46.404559 33.739985
Au 34.044674 42.319143 45.996228
Au 34.044674 42.319143 41.910813
Au 34.044674 42.319143 37.825401
Au 34.044674 38.233731 45.996228
Au 34.044674 38.233731 41.910813
Au 34.044674 34.148315 45.996228
Au 29.959259 50.489975 45.996228
Au 29.959259 50.489975 41.910813
Au 29.959259 50.489975 37.825401
Au 29.959259 50.489975 33.739985
Au 29.959259 46.404559 45.996228
Au 29.959259 46.404559 41.910813
Au 29.959259 46.404559 37.825401
Au 29.959259 42.319143 45.996228
Au 29.959259 42.319143 41.910813
Au 29.959259 38.233731 45.996228
Au 25.873843 50.489975 45.996228
Au 25.873843 50.489975 41.910813
Au 25.873843 50.489975 37.825401
Au 25.873843 46.404559 45.996228
Au 25.873843 46.404559 41.910813
Au 25.873843 42.319143 45.996228
Au 46.300918 48.447266 48.038937
Au 46.300918 48.447266 43.953521
Au 46.300918 48.447266 39.868105
Au 46.300918 48.447266 35.782693
Au 46.300918 48.447266 31.697277
Au 46.300918 48.447266 27.611862
Au 46.300918 44.361851 48.038937
Au 46.300918 44.361851 43.953521
Au 46.300918 44.361851 39.868105
Au 46.300918 44.361851 35.782693
Au 46.300918 44.361851 31.697277
Au 46.300918 44.361851 27.611862
Au 46.300918 40.276439 48.038937
Au 46.300918 40.276439 43.953521
Au 46.300918 40.276439 39.868105
Au 46.300918 40.276439 35.782693
Au 46.300918 40.276439 31.697277
Au 46.300918 40.276439 27.611862
Au 46.300918 36.191023 48.038937
Au 46.300918 36.191023 43.953521
Au 46.300918 36.191023 39.868105
Au 46.300918 36.191023 35.782693
Au 46.300918 36.191023 31.697277
Au 46.300918 32.105607 48.038937
Au 46.300918 32.105607 43.953521
Au 46.300918 32.105607 39.868105
Au 46.300918 32.105607 35.782693
Au 46.300918 28.020191 48.038937
Au 46.300918 28.020191 43.953521
Au 46.300918 28.020191 39.868105
Au 42.215502 48.447266 48.038937
Au 42.215502 48.447266 43.953521
Au 42.215502 48.447266 39.868105
Au 42.215502 48.447266 35.782693
Au 42.215502 48.447266 31.697277
Au 42.215502 48.447266 27.611862
Au 42.215502 44.361851 48.038937
Au 42.215502 44.361851 43.953521
Au 42.215502 44.361851 39.868105
Au 42.215502 44.361851 35.782693
Au 42.215502 44.361851 31.697277
Au 42.215502 44.361851 27.611862
Au 42.215502 40.276439 48.038937
Au 42.215502 40.276439 43.953521
Au 42.215502 40.276439 39.868105
Au 42.215502 40.276439 35.782693
Au 42.215502 40.276439 31.697277
Au 42.215502 36.191023 48.038937
Au 42.215502 36.191023 43.953521
Au 42.215502 36.191023 39.868105
Au 42.215502 36.191023 35.782693
Au 42.215502 32.105607 48.038937
Au 42.215502 32.105607 43.953521
Au 42.215502 32.105607 39.868105
Au 42.215502 28.020191 48.038937
Au 42.215502 28.020191 43.953521
Au 38.130086 48.447266 48.038937
Au 38.130086 48.447266 43.953521
Au 38.130086 48.447266 39.868105
Au 38.130086 48.447266 35.782693
Au 38.130086 48.447266 31.697277
Au 38.130086 48.447266 27.611862
Au 38.130086 44.361851 48.038937
Au 38.130086 44.361851 43.953521
Au 38.130086 44.361851 39.868105
Au 38.130086 44.361851 35.782693
Au 38.130086 44.361851 31.697277
Au 38.130086 40.276439 48.038937
Au 38.130086 40.276439 43.953521
Au 38.130086 40.276439 39.868105
Au 38.130086 40.276439 35.782693
Au 38.130086 36.191023 48.038937
Au 38.130086 36.191023 43.953521
Au 38.130086 36.191023 39.868105
Au 38.130086 32.105607 48.038937
Au 38.130086 32.105607 43.953521
Au 38.130086 28.020191 48.038937
Au 34.044674 48.447266 48.038937
Au 34.044674 48.447266 43.953521
Au 34.044674 48.447266 39.868105
Au 34.044674 48.447266 35.782693
Au 34.044674 48.447266 31.697277
Au 34.044674 44.361851 48.038937
Au 34.044674 44.361851 43.953521
Au 34.044674 44.361851 39.868105
Au 34.044674 44.361851 35.782693
Au 34.044674 40.276439 48.038937
Au 34.044674 40.276439 43.953521
Au 34.044674 40.276439 39.868105
Au 34.044674 36.191023 48.038937
Au 34.044674 36.191023 43.953521
Au 34.044674 32.105607 48.038937
Au 29.959259 48.447266 48.038937
Au 29.959259 48.447266 43.953521
Au 29.959259 48.447266 39.868105
Au 29.959259 48.447266 35.782693
Au 29.959259 44.361851 48.038937
Au 29.959259 44.361851 43.953521
Au 29.959259 44.361851 39.868105
Au 29.959259 40.276439 48.038937
Au 29.959259 40.276439 43.953521
Au 29.959259 36.191023 48.038937
Au 25.873843 48.447266 48.038937
Au 25.873843 48.447266 43.953521
Au 25.873843 48.447266 39.868105
Au 25.873843 44.361851 48.038937
Au 25.873843 44.361851 43.953521
Au 25.873843 40.276439 48.038937
Au 48.343626 50.489975 48.038937
Au 48.343626 50.489975 43.953521
Au 48.343626 50.489975 39.868105
Au 48.343626 50.489975 35.782693
Au 48.343626 50.489975 31.697277
Au 48.343626 50.489975 27.611862
Au 48.343626 46.404559 48.038937
Au 48.343626 46.404559 43.953521
Au 48.343626 46.404559 39.868105
Au 48.343626 46.404559 35.782693
Au 48.343626 46.404559 31.697277
Au 48.343626 46.404559 27.611862
Au 48.343626 42.319143 48.038937
Au 48.343626 42.319143 43.953521
Au 48.343626 42.319143 39.868105
Au 48.343626 42.319143 35.782693
Au 48.343626 42.319143 31.697277
Au 48.343626 42.319143 27.611862
Au 48.343626 38.233731 48.038937
Au 48.343626 38.233731 43.953521
Au 48.343626 38.233731 39.868105
Au 48.343626 38.233731 35.782693
Au 48.343626 38.233731 31.697277
Au 48.343626 38.233731 27.611862
Au 48.343626 34.148315 48.038937
Au 48.343626 34.148315 43.953521
Au 48.343626 34.148315 39.868105
Au 48.343626 34.148315 35.782693
Au 48.343626 34.148315 31.697277
Au 48.343626 30.062900 48.038937
Au 48.343626 30.062900 43.953521
Au 48.343626 30.062900 39.868105
Au 48.343626 30.062900 35.782693
Au 48.343626 25.977486 48.038937
Au 48.343626 25.977486 43.953521
Au 48.343626 25.977486 39.868105
Au 44.258211 50.489975 48.038937
Au 44.258211 50.489975 43.953521
Au 44.258211 50.489975 39.868105
Au 44.258211 50.489975 35.782693
Au 44.258211 50.489975 31.697277
Au 44.258211 50.489975 27.611862
Au 44.258211 46.404559 48.038937
Au 44.258211 46.404559 43.953521
Au 44.258211 46.404559 39.868105
Au 44.258211 46.404559 35.782693
Au 44.258211 46.404559 31.697277
Au 44.258211 46.404559 27.611862
Au 44.258211 42.319143 48.038937
Au 44.258211 42.319143 43.953521
Au 44.258211 42.319143 39.868105
Au 44.258211 42.319143 35.782693
Au 44.258211 42.319143 31.697277
Au 44.258211 42.319143 27.611862
Au 44.258211 38.233731 48.038937
Au 44.258211 38.233731 43.953521
Au 44.258211 38.233731 39.868105
Au 44.258211 38.233731 35.782693
Au 44.258211 38.233731 31.697277
Au 44.258211 34.148315 48.038937
Au 44.258211 34.148315 43.953521
Au 44.258211 34.148315 39.868105
Au 44.258211 34.148315 35.782693
Au 44.258211 30.062900 48.038937
Au 44.258211 30.062900 43.953521
Au 44.258211 30.062900 39.868105
Au 44.258211 25.977486 48.038937
Au 44.258211 25.977486 43.953521
Au 40.172795 50.489975 48.038937
Au 40.172795 50.489975 43.953521
Au 40.172795 50.489975 39.868105
Au 40.172795 50.489975 35.782693
Au 40.172795 50.489975 31.697277
Au 40.172795 50.489975 27.611862
Au 40.172795 46.404559 48.038937
Au 40.172795 46.404559 43.953521
Au 40.172795 46.404559 39.868105
Au 40.172795 46.404559 35.782693
Au 40.172795 46.404559 31.697277
Au 40.172795 46.404559 27.611862
Au 40.172795 42.319143 48.038937
Au 40.172795 42.319143 43.953521
Au 40.172795 42.319143 39.868105
Au 40.172795 42.319143 35.782693
Au 40.172795 42.319143 31.697277
Au 40.172795 38.233731 48.038937
Au 40.172795 38.233731 43.953521
Au 40.172795 38.233731 39.868105
Au 40.172795 38.233731 35.782693
Au 40.172795 34.148315 48.038937
Au 40.172795 34.148315 43.953521
Au 40.172795 34.148315 39.868105
Au 40.172795 30.062900 48.038937
Au 40.172795 30.062900 43.953521
Au 40.172795 25.977486 48.038937
Au 36.087383 50.489975 48.038937
Au 36.087383 50.489975 43.953521
Au 36.087383 50.489975 39.868105
Au 36.087383 50.489975 35.782693
Au 36.087383 50.489975 31.697277
Au 36.087383 50.489975 27.611862
Au 36.087383 46.404559 48.038937
Au 36.087383 46.404559 43.953521
Au 36.087383 46.404559 39.868105
Au 36.087383 46.404559 35.782693
Au 36.087383 46.404559 31.697277
Au 36.087383 42.319143 48.038937
Au 36.087383 42.319143 43.953521
Au 36.087383 42.319143 39.868105
Au 36.087383 42.319143 35.782693
Au 36.087383 38.233731 48.038937
Au 36.087383 38.233731 43.953521
Au 36.087383 38.233731 39.868105
Au 36.087383 34.148315 48.038937
Au 36.087383 34.148315 43.953521
Au 36.087383 30.062900 48.038937
Au 32.001965 50.489975 48.038937
Au 32.001965 50.489975 43.953521
Au 32.001965 50.489975 39.868105
Au 32.001965 50.489975 35.782693
Au 32.001965 50.489975 31.697277
Au 32.001965 46.404559 48.038937
Au 32.001965 46.404559 43.953521
Au 32.001965 46.404559 39.868105
Au 32.001965 46.404559 35.782693
Au 32.001965 42.319143 48.038937
Au 32.001965 42.319143 43.953521
Au 32.001965 42.319143 39.868105
Au 32.001965 38.233731 48.038937
Au 32.001965 38.233731 43.953521
Au 32.001965 34.148315 48.038937
Au 27.916551 50.489975 48.038937
Au 27.916551 50.489975 43.953521
Au 27.916551 50.489975 39.868105
Au 27.916551 50.489975 35.782693
Au 27.916551 46.404559 48.038937
Au 27.916551 46.404559 43.953521
Au 27.916551 46.404559 39.868105
Au 27.916551 42.319143 48.038937
Au 27.916551 42.319143 43.953521
Au 27.916551 38.233731 48.038937
Au 48.343626 48.447266 45.996228
Au 48.343626 48.447266 41.910813
Au 48.343626 48.447266 37.825401
Au 48.343626 48.447266 33.739985
Au 48.343626 48.447266 29.654569
Au 48.343626 48.447266 25.569153
Au 48.343626 44.361851 45.996228
Au 48.343626 44.361851 41.910813
Au 48.343626 44.361851 37.825401
Au 48.343626 44.361851 33.739985
Au 48.343626 44.361851 29.654569
Au 48.343626 44.361851 25.569153
Au 48.343626 40.276439 45.996228
Au 48.343626 40.276439 41.910813
Au 48.343626 40.276439 37.825401
Au 48.343626 40.276439 33.739985
Au 48.343626 40.276439 29.654569
Au 48.343626 40.276439 25.569153
Au 48.343626 36.191023 45.996228
Au 48.343626 36.191023 41.910813
Au 48.343626 36.191023 37.825401
Au 48.343626 36.191023 33.739985
Au 48.343626 36.191023 29.654569
Au 48.343626 32.105607 45.996228
Au 48.343626 32.105607 41.910813
Au 48.343626 32.105607 37.825401
Au 48.343626 32.105607 33.739985
Au 48.343626 28.020191 45.996228
Au 48.343626 28.020191 41.910813
Au 48.343626 28.020191 37.825401
Au 44.258211 48.447266 45.996228
Au 44.258211 48.447266 41.910813
Au 44.258211 48.447266 37.825401
Au 44.258211 48.447266 33.739985
Au 44.258211 48.447266 29.654569
Au 44.258211 48.447266 25.569153
Au 44.258211 44.361851 45.996228
Au 44.258211 44.361851 41.910813
Au 44.258211 44.361851 37.825401
Au 44.258211 44.361851 33.739985
Au 44.258211 44.361851 29.654569
Au 44.258211 44.361851 25.569153
Au 44.258211 40.276439 45.996228
Au 44.258211 40.276439 41.910813
Au 44.258211 40.276439 37.825401
Au 44.258211 40.276439 33.739985
Au 44.258211 40.276439 29.654569
Au 44.258211 36.191023 45.996228
Au 44.258211 36.191023 41.910813
Au 44.258211 36.191023 37.825401
Au 44.258211 36.191023 33.739985
Au 44.258211 32.105607 45.996228
Au 44.258211 32.105607 41.910813
Au 44.258211 32.105607 37.825401
Au 44.258211 28.020191 45.996228
Au 44.258211 28.020191 41.910813
Au 40.172795 48.447266 45.996228
Au 40.172795 48.447266 41.910813
Au 40.172795 48.447266 37.825401
Au 40.172795 48.447266 33.739985
Au 40.172795 48.447266 29.654569
Au 40.172795 48.447266 25.569153
Au 40.172795 44.361851 45.996228
Au 40.172795 44.361851 41.910813
Au 40.172795 44.361851 37.825401
Au 40.172795 44.361851 33.739985
Au 40.172795 44.361851 29.654569
Au 40.172795 40.276439 45.996228
Au 40.172795 40.276439 41.910813
Au 40.172795 40.276439 37.825401
Au 40.172795 40.276439 33.739985
Au 40.172795 36.191023 45.996228
Au 40.172795 36.191023 41.910813
Au 40.172795 36.191023 37.825401
Au 40.172795 32.105607 45.996228
Au 40.172795 32.105607 41.910813
Au 40.172795 28.020191 45.996228
Au 36.087383 48.447266 45.996228
Au 36.087383 48.447266 41.910813
Au 36.087383 48.447266 37.825401
Au 36.087383 48.447266 33.739985
Au 36.087383 48.447266 29.654569
Au 36.087383 44.361851 45.996228
Au 36.087383 44.361851 41.910813
Au 36.087383 44.361851 37.825401
Au 36.087383 44.361851 33.739985
Au 36.087383 40.276439 45.996228
Au 36.087383 40.276439 41.910813
Au 36.087383 40.276439 37.825401
Au 36.087383 36.191023 45.996228
Au 36.087383 36.191023 41.910813
Au 36.087383 32.105607 45.996228
Au 32.001965 48.447266 45.996228
Au 32.001965 48.447266 41.910813
Au 32.001965 48.447266 37.825401
Au 32.001965 48.447266 33.739985
Au 32.001965 44.361851 45.996228
Au 32.001965 44.361851 41.910813
Au 32.001965 44.361851 37.825401
Au 32.001965 40.276439 45.996228
Au 32.001965 40.276439 41.910813
Au 32.001965 36.191023 45.996228
Au 27.916551 48.447266 45.996228
Au 27.916551 48.447266 41.910813
Au 27.916551 48.447266 37.825401
Au 27.916551 44.361851 45.996228
Au 27.916551 44.361851 41.910813
Au 27.916551 40.276439 45.996228
Au 50.386334 46.404559 45.996228
Au 50.386334 46.404559 41.910813
Au 50.386334 46.404559 37.825401
Au 50.386334 46.404559 33.739985
Au 50.386334 46.404559 29.654569
Au 50.386334 46.404559 25.569153
Au 54.471750 46.404559 45.996228
Au 54.471750 46.404559 41.910813
Au 54.471750 46.404559 37.825401
Au 54.471750 46.404559 33.739985
Au 54.471750 46.404559 29.654569
Au 54.471750 46.404559 25.569153
Au 58.557162 46.404559 45.996228
Au 58.557162 46.404559 41.910813
Au 58.557162 46.404559 37.825401
Au 58.557162 46.404559 33.739985
Au 58.557162 46.404559 29.654569
Au 58.557162 46.404559 25.569153
Au 62.642577 46.404559 45.996228
Au 62.642577 46.404559 41.910813
Au 62.642577 46.404559 37.825401
Au 62.642577 46.404559 33.739985
Au 62.642577 46.404559 29.654569
Au 66.727993 46.404559 45.996228
Au 66.727993 46.404559 41.910813
Au 66.727993 46.404559 37.825401
Au 66.727993 46.404559 33.739985
Au 70.813409 46.404559 45.996228
Au 70.813409 46.404559 41.910813
Au 70.813409 46.404559 37.825401
Au 74.898825 46.404559 45.996228
Au 74.898825 46.404559 41.910813
Au 50.386334 42.319143 45.996228
Au 50.386334 42.319143 41.910813
Au 50.386334 42.319143 37.825401
Au 50.386334 42.319143 33.739985
Au 50.386334 42.319143 29.654569
Au 50.386334 42.319143 25.569153
Au 54.471750 42.319143 45.996228
Au 54.471750 42.319143 41.910813
Au 54.471750 42.319143 37.825401
Au 54.471750 42.319143 33.739985
Au 54.471750 42.319143 29.654569
Au 54.471750 42.319143 25.569153
Au 58.557162 42.319143 45.996228
Au 58.557162 42.319143 41.910813
Au 58.557162 42.319143 37.825401
Au 58.557162 42.319143 33.739985
Au 58.557162 42.319143 29.654569
Au 62.642577 42.319143 45.996228
Au 62.642577 42.319143 41.910813
Au 62.642577 42.319143 37.825401
Au 62.642577 42.319143 33.739985
Au 66.727993 42.319143 45.996228
Au 66.727993 42.319143 41.910813
Au 66.727993 42.319143 37.825401
Au 70.813409 42.319143 45.996228
Au 70.813409 42.319143 41.910813
Au 74.898825 42.319143 45.996228
Au 50.386334 38.233731 45.996228
Au 50.386334 38.233731 41.910813
Au 50.386334 38.233731 37.825401
Au 50.386334 38.233731 33.739985
Au 50.386334 38.233731 29.654569
Au 50.386334 38.233731 25.569153
Au 54.471750 38.233731 45.996228
Au 54.471750 38.233731 41.910813
Au 54.471750 38.233731 37.825401
Au 54.471750 38.233731 33.739985
Au 54.471750 38.233731 29.654569
Au 58.557162 38.233731 45.996228
Au 58.557162 38.233731 41.910813
Au 58.557162 38.233731 37.825401
Au 58.557162 38.233731 33.739985
Au 62.642577 38.233731 45.996228
Au 62.642577 38.233731 41.910813
Au 62.642577 38.233731 37.825401
Au 66.727993 38.233731 45.996228
Au 66.727993 38.233731 41.910813
Au 70.813409 38.233731 45.996228
Au 50.386334 34.148315 45.996228
Au 50.386334 34.148315 41.910813
Au 50.386334 34.148315 37.825401
Au 50.386334 34.148315 33.739985
Au 50.386334 34.148315 29.654569
Au 54.471750 34.148315 45.996228
Au 54.471750 34.148315 41.910813
Au 54.471750 34.148315 37.825401
Au 54.471750 34.148315 33.739985
Au 58.557162 34.148315 45.996228
Au 58.557162 34.148315 41.910813
Au 58.557162 34.148315 37.825401
Au 62.642577 34.148315 45.996228
Au 62.642577 34.148315 41.910813
Au 66.727993 34.148315 45.996228
Au 50.386334 30.062900 45.996228
Au 50.386334 30.062900 41.910813
Au 50.386334 30.062900 37.825401
Au 50.386334 30.062900 33.739985
Au 54.471750 30.062900 45.996228
Au 54.471750 30.062900 41.910813
Au 54.471750 30.062900 37.825401
Au 58.557162 30.062900 45.996228
Au 58.557162 30.062900 41.910813
Au 62.642577 30.062900 45.996228
Au 50.386334 25.977486 45.996228
Au 50.386334 25.977486 41.910813
Au 50.386334 25.977486 37.825401
Au 54.471750 25.977486 45.996228
Au 54.471750 25.977486 41.910813
Au 58.557162 25.977486 45.996228
Au 52.429042 46.404559 48.038937
Au 52.429042 46.404559 43.953521
Au 52.429042 46.404559 39.868105
Au 52.429042 46.404559 35.782693
Au 52.429042 46.404559 31.697277
Au 52.429042 46.404559 27.611862
Au 56.514454 46.404559 48.038937
Au 56.514454 46.404559 43.953521
Au 56.514454 46.404559 39.868105
Au 56.514454 46.404559 35.782693
Au 56.514454 46.404559 31.697277
Au 56.514454 46.404559 27.611862
Au 60.599870 46.404559 48.038937
Au 60.599870 46.404559 43.953521
Au 60.599870 46.404559 39.868105
Au 60.599870 46.404559 35.782693
Au 60.599870 46.404559 31.697277
Au 60.599870 46.404559 27.611862
Au 64.685290 46.404559 48.038937
Au 64.685290 46.404559 43.953521
Au 64.685290 46.404559 39.868105
Au 64.685290 46.404559 35.782693
Au 64.685290 46.404559 31.697277
Au 68.770697 46.404559 48.038937
Au 68.770697 46.404559 43.953521
Au 68.770697 46.404559 39.868105
Au 68.770697 46.404559 35.782693
Au 72.856112 46.404559 48.038937
Au 72.856112 46.404559 43.953521
Au 72.856112 46.404559 39.868105
Au 52.429042 42.319143 48.038937
Au 52.429042 42.319143 43.953521
Au 52.429042 42.319143 39.868105
Au 52.429042 42.319143 35.782693
Au 52.429042 42.319143 31.697277
Au 52.429042 42.319143 27.611862
Au 56.514454 42.319143 48.038937
Au 56.514454 42.319143 43.953521
Au 56.514454 42.319143 39.868105
Au 56.514454 42.319143 35.782693
Au 56.514454 42.319143 31.697277
Au 56.514454 42.319143 27.611862
Au 60.599870 42.319143 48.038937
Au 60.599870 42.319143 43.953521
Au 60.599870 42.319143 39.868105
Au 60.599870 42.319143 35.782693
Au 60.599870 42.319143 31.697277
Au 64.685290 42.319143 48.038937
Au 64.685290 42.319143 43.953521
Au 64.685290 42.319143 39.868105
Au 64.685290 42.319143 35.782693
Au 68.770697 42.319143 48.038937
Au 68.770697 42.319143 43.953521
Au 68.770697 42.319143 39.868105
Au 72.856112 42.319143 48.038937
Au 72.856112 42.319143 43.953521
Au 52.429042 38.233731 48.038937
Au 52.429042 38.233731 43.953521
Au 52.429042 38.233731 39.868105
Au 52.429042 38.233731 35.782693
Au 52.429042 38.233731 31.697277
Au 52.429042 38.233731 27.611862
Au 56.514454 38.233731 48.038937
Au 56.514454 38.233731 43.953521
Au 56.514454 38.233731 39.868105
Au 56.514454 38.233731 35.782693
Au 56.514454 38.233731 31.697277
Au 60.599870 38.233731 48.038937
Au 60.599870 38.233731 43.953521
Au 60.599870 38.233731 39.868105
Au 60.599870 38.233731 35.782693
Au 64.685290 38.233731 48.038937
Au 64.685290 38.233731 43.953521
Au 64.685290 38.233731 39.868105
Au 68.770697 38.233731 48.038937
Au 68.770697 38.233731 43.953521
Au 72.856112 38.233731 48.038937
Au 52.429042 34.148315 48.038937
Au 52.429042 34.148315 43.953521
Au 52.429042 34.148315 39.868105
Au 52.429042 34.148315 35.782693
Au 52.429042 34.148315 31.697277
Au 56.514454 34.148315 48.038937
Au 56.514454 34.148315 43.953521
Au 56.514454 34.148315 39.868105
Au 56.514454 34.148315 35.782693
Au 60.599870 34.148315 48.038937
Au 60.599870 34.148315 43.953521
Au 60.599870 34.148315 39.868105
Au 64.685290 34.148315 48.038937
Au 64.685290 34.148315 43.953521
Au 68.770697 34.148315 48.038937
Au 52.429042 30.062900 48.038937
Au 52.429042 30.062900 43.953521
Au 52.429042 30.062900 39.868105
Au 52.429042 30.062900 35.782693
Au 56.514454 30.062900 48.038937
Au 56.514454 30.062900 43.953521
Au 56.514454 30.062900 39.868105
Au 60.599870 30.062900 48.038937
Au 60.599870 30.062900 43.953521
Au 64.685290 30.062900 48.038937
Au 52.429042 25.977486 48.038937
Au 52.429042 25.977486 43.953521
Au 52.429042 25.977486 39.868105
Au 56.514454 25.977486 48.038937
Au 56.514454 25.977486 43.953521
Au 60.599870 25.977486 48.038937
Au 50.386334 48.447266 48.038937
Au 50.386334 48.447266 43.953521
Au 50.386334 48.447266 39.868105
Au 50.386334 48.447266 35.782693
Au 50.386334 48.447266 31.697277
Au 50.386334 48.447266 27.611862
Au 54.471750 48.447266 48.038937
Au 54.471750 48.447266 43.953521
Au 54.471750 48.447266 39.868105
Au 54.471750 48.447266 35.782693
Au 54.471750 48.447266 31.697277
Au 54.471750 48.447266 27.611862
Au 58.557162 48.447266 48.038937
Au 58.557162 48.447266 43.953521
Au 58.557162 48.447266 39.868105
Au 58.557162 48.447266 35.782693
Au 58.557162 48.447266 31.697277
Au 58.557162 48.447266 27.611862
Au 62.642577 48.447266 48.038937
Au 62.642577 48.447266 43.953521
Au 62.642577 48.447266 39.868105
Au 62.642577 48.447266 35.782693
Au 62.642577 48.447266 31.697277
Au 62.642577 48.447266 27.611862
Au 66.727993 48.447266 48.038937
Au 66.727993 48.447266 43.953521
Au 66.727993 48.447266 39.868105
Au 66.727993 48.447266 35.782693
Au 66.727993 48.447266 31.697277
Au 70.813409 48.447266 48.038937
Au 70.813409 48.447266 43.953521
Au 70.813409 48.447266 39.868105
Au 70.813409 48.447266 35.782693
Au 74.898825 48.447266 48.038937
Au 74.898825 48.447266 43.953521
Au 74.898825 48.447266 39.868105
Au 50.386334 44.361851 48.038937
Au 50.386334 44.361851 43.953521
Au 50.386334 44.361851 39.868105
Au 50.386334 44.361851 35.782693
Au 50.386334 44.361851 31.697277
Au 50.386334 44.361851 27.611862
Au 54.471750 44.361851 48.038937
Au 54.471750 44.361851 43.953521
Au 54.471750 44.361851 39.868105
Au 54.471750 44.361851 35.782693
Au 54.471750 44.361851 31.697277
Au 54.471750 44.361851 27.611862
Au 58.557162 44.361851 48.038937
Au 58.557162 44.361851 43.953521
Au 58.557162 44.361851 39.868105
Au 58.557162 44.361851 35.782693
Au 58.557162 44.361851 31.697277
Au 58.557162 44.361851 27.611862
Au 62.642577 44.361851 48.038937
Au 62.642577 44.361851 43.953521
Au 62.642577 44.361851 39.868105
Au 62.642577 44.361851 35.782693
Au 62.642577 44.361851 31.697277
Au 66.727993 44.361851 48.038937
Au 66.727993 44.361851 43.953521
Au 66.727993 44.361851 39.868105
Au 66.727993 44.361851 35.782693
Au 70.813409 44.361851 48.038937
Au 70.813409 44.361851 43.953521
Au 70.813409 44.361851 39.868105
Au 74.898825 44.361851 48.038937
Au 74.898825 44.361851 43.953521
Au 50.386334 40.276439 48.038937
Au 50.386334 40.276439 43.953521
Au 50.386334 40.276439 39.868105
Au 50.386334 40.276439 35.782693
Au 50.386334 40.276439 31.697277
Au 50.386334 40.276439 27.611862
Au 54.471750 40.276439 48.038937
Au 54.471750 40.276439 43.953521
Au 54.471750 40.276439 39.868105
Au 54.471750 40.276439 35.782693
Au 54.471750 40.276439 31.697277
Au 54.471750 40.276439 27.611862
Au 58.557162 40.276439 48.038937
Au 58.557162 40.276439 43.953521
Au 58.557162 40.276439 39.868105
Au 58.557162 40.276439 35.782693
Au 58.557162 40.276439 31.697277
Au 62.642577 40.276439 48.038937
Au 62.642577 40.276439 43.953521
Au 62.642577 40.276439 39.868105
Au 62.642577 40.276439 35.782693
Au 66.727993 40.276439 48.038937
Au 66.727993 40.276439 43.953521
Au 66.727993 40.276439 39.868105
Au 70.813409 40.276439 48.038937
Au 70.813409 40.276439 43.953521
Au 74.898825 40.276439 48.038937
Au 50.386334 36.191023 48.038937
Au 50.386334 36.191023 43.953521
Au 50.386334 36.191023 39.868105
Au 50.386334 36.191023 35.782693
Au 50.386334 36.191023 31.697277
Au 50.386334 36.191023 27.611862
Au 54.471750 36.191023 48.038937
Au 54.471750 36.191023 43.953521
Au 54.471750 36.191023 39.868105
Au 54.471750 36.191023 35.782693
Au 54.471750 36.191023 31.697277
Au 58.557162 36.191023 48.038937
Au 58.557162 36.191023 43.953521
Au 58.557162 36.191023 39.868105
Au 58.557162 36.191023 35.782693
Au 62.642577 36.191023 48.038937
Au 62.642577 36.191023 43.953521
Au 62.642577 36.191023 39.868105
Au 66.727993 36.191023 48.038937
Au 66.727993 36.191023 43.953521
Au 70.813409 36.191023 48.038937
Au 50.386334 32.105607 48.038937
Au 50.386334 32.105607 43.953521
Au 50.386334 32.105607 39.868105
Au 50.386334 32.105607 35.782693
Au 50.386334 32.105607 31.697277
Au 54.471750 32.105607 48.038937
Au 54.471750 32.105607 43.953521
Au 54.471750 32.105607 39.868105
Au 54.471750 32.105607 35.782693
Au 58.557162 32.105607 48.038937
Au 58.557162 32.105607 43.953521
Au 58.557162 32.105607 39.868105
Au 62.642577 32.105607 48.038937
Au 62.642577 32.105607 43.953521
Au 66.727993 32.105607 48.038937
Au 50.386334 28.020191 48.038937
Au 50.386334 28.020191 43.953521
Au 50.386334 28.020191 39.868105
Au 50.386334 28.020191 35.782693
Au 54.471750 28.020191 48.038937
Au 54.471750 28.020191 43.953521
Au 54.471750 28.020191 39.868105
Au 58.557162 28.020191 48.038937
Au 58.557162 28.020191 43.953521
Au 62.642577 28.020191 48.038937
Au 52.429042 48.447266 45.996228
Au 52.429042 48.447266 41.910813
Au 52.429042 48.447266 37.825401
Au 52.429042 48.447266 33.739985
Au 52.429042 48.447266 29.654569
Au 52.429042 48.447266 25.569153
Au 56.514454 48.447266 45.996228
Au 56.514454 48.447266 41.910813
Au 56.514454 48.447266 37.825401
Au 56.514454 48.447266 33.739985
Au 56.514454 48.447266 29.654569
Au 56.514454 48.447266 25.569153
Au 60.599870 48.447266 45.996228
Au 60.599870 48.447266 41.910813
Au 60.599870 48.447266 37.825401
Au 60.599870 48.447266 33.739985
Au 60.599870 48.447266 29.654569
Au 60.599870 48.447266 25.569153
Au 64.685290 48.447266 45.996228
Au 64.685290 48.447266 41.910813
Au 64.685290 48.447266 37.825401
Au 64.685290 48.447266 33.739985
Au 64.685290 48.447266 29.654569
Au 68.770697 48.447266 45.996228
Au 68.770697 48.447266 41.910813
Au 68.770697 48.447266 37.825401
Au 68.770697 48.447266 33.739985
Au 72.856112 48.447266 45.996228
Au 72.856112 48.447266 41.910813
Au 72.856112 48.447266 37.825401
Au 52.429042 44.361851 45.996228
Au 52.429042 44.361851 41.910813
Au 52.429042 44.361851 37.825401
Au 52.429042 44.361851 33.739985
Au 52.429042 44.361851 29.654569
Au 52.429042 44.361851 25.569153
Au 56.514454 44.361851 45.996228
Au 56.514454 44.361851 41.910813
Au 56.514454 44.361851 37.825401
Au 56.514454 44.361851 33.739985
Au 56.514454 44.361851 29.654569
Au 56.514454 44.361851 25.569153
Au 60.599870 44.361851 45.996228
Au 60.599870 44.361851 41.910813
Au 60.599870 44.361851 37.825401
Au 60.599870 44.361851 33.739985
Au 60.599870 44.361851 29.654569
Au 64.685290 44.361851 45.996228
Au 64.685290 44.361851 41.910813
Au 64.685290 44.361851 37.825401
Au 64.685290 44.361851 33.739985
Au 68.770697 44.361851 45.996228
Au 68.770697 44.361851 41.910813
Au 68.770697 44.361851 37.825401
Au 72.856112 44.361851 45.996228
Au 72.856112 44.361851 41.910813
Au 52.429042 40.276439 45.996228
Au 52.429042 40.276439 41.910813
Au 52.429042 40.276439 37.825401
Au 52.429042 40.276439 33.739985
Au 52.429042 40.276439 29.654569
Au 52.429042 40.276439 25.569153
Au 56.514454 40.276439 45.996228
Au 56.514454 40.276439 41.910813
Au 56.514454 40.276439 37.825401
Au 56.514454 40.276439 33.739985
Au 56.514454 40.276439 29.654569
Au 60.599870 40.276439 45.996228
Au 60.599870 40.276439 41.910813
Au 60.599870 40.276439 37.825401
Au 60.599870 40.276439 33.739985
Au 64.685290 40.276439 45.996228
Au 64.685290 40.276439 41.910813
Au 64.685290 40.276439 37.825401
Au 68.770697 40.276439 45.996228
Au 68.770697 40.276439 41.910813
Au 72.856112 40.276439 45.996228
Au 52.429042 36.191023 45.996228
Au 52.429042 36.191023 41.910813
Au 52.429042 36.191023 37.825401
Au 52.429042 36.191023 33.739985
Au 52.429042 36.191023 29.654569
Au 56.514454 36.191023 45.996228
Au 56.514454 36.191023 41.910813
Au 56.514454 36.191023 37.825401
Au 56.514454 36.191023 33.739985
Au 60.599870 36.191023 45.996228
Au 60.599870 36.191023 41.910813
Au 60.599870 36.191023 37.825401
Au 64.685290 36.191023 45.996228
Au 64.685290 36.191023 41.910813
Au 68.770697 36.191023 45.996228
Au 52.429042 32.105607 45.996228
Au 52.429042 32.105607 41.910813
Au 52.429042 32.105607 37.825401
Au 52.429042 32.105607 33.739985
Au 56.514454 32.105607 45.996228
Au 56.514454 32.105607 41.910813
Au 56.514454 32.105607 37.825401
Au 60.599870 32.105607 45.996228
Au 60.599870 32.105607 41.910813
Au 64.685290 32.105607 45.996228
Au 52.429042 28.020191 45.996228
Au 52.429042 28.020191 41.910813
Au 52.429042 28.020191 37.825401
Au 56.514454 28.020191 45.996228
Au 56.514454 28.020191 41.910813
Au 60.599870 28.020191 45.996228
Au 54.471750 50.489975 45.996228
Au 54.471750 50.489975 41.910813
Au 54.471750 50.489975 37.825401
Au 54.471750 50.489975 33.739985
Au 54.471750 50.489975 29.654569
Au 54.471750 50.489975 25.569153
Au 54.471750 54.575391 45.996228
Au 54.471750 54.575391 41.910813
Au 54.471750 54.575391 37.825401
Au 54.471750 54.575391 33.739985
Au 54.471750 54.575391 29.654569
Au 54.471750 54.575391 25.569153
Au 54.471750 58.660806 45.996228
Au 54.471750 58.660806 41.910813
Au 54.471750 58.660806 37.825401
Au 54.471750 58.660806 33.739985
Au 54.471750 58.660806 29.654569
Au 54.471750 58.660806 25.569153
Au 54.471750 62.746218 45.996228
Au 54.471750 62.746218 41.910813
Au 54.471750 62.746218 37.825401
Au 54.471750 62.746218 33.739985
Au 54.471750 62.746218 29.654569
Au 54.471750 66.831638 45.996228
Au 54.471750 66.831638 41.910813
Au 54.471750 66.831638 37.825401
Au 54.471750 66.831638 33.739985
Au 54.471750 70.917054 45.996228
Au 54.471750 70.917054 41.910813
Au 54.471750 70.917054 37.825401
Au 54.471750 75.002462 45.996228
Au 54.471750 75.002462 41.910813
Au 58.557162 50.489975 45.996228
Au 58.557162 50.489975 41.910813
Au 58.557162 50.489975 37.825401
Au 58.557162 50.489975 33.739985
Au 58.557162 50.489975 29.654569
Au 58.557162 50.489975 25.569153
Au 58.557162 54.575391 45.996228
Au 58.557162 54.575391 41.910813
Au 58.557162 54.575391 37.825401
Au 58.557162 54.575391 33.739985
Au 58.557162 54.575391 29.654569
Au 58.557162 54.575391 25.569153
Au 58.557162 58.660806 45.996228
Au 58.557162 58.660806 41.910813
Au 58.557162 58.660806 37.825401
Au 58.557162 58.660806 33.739985
Au 58.557162 58.660806 29.654569
Au 58.557162 62.746218 45.996228
Au 58.557162 62.746218 41.910813
Au 58.557162 62.746218 37.825401
Au 58.557162 62.746218 33.739985
Au 58.557162 66.831638 45.996228
Au 58.557162 66.831638 41.910813
Au 58.557162 66.831638 37.825401
Au 58.557162 70.917054 45.996228
Au 58.557162 70.917054 41.910813
Au 58.557162 75.002462 45.996228
Au 62.642577 50.489975 45.996228
Au 62.642577 50.489975 41.910813
Au 62.642577 50.489975 37.825401
Au 62.642577 50.489975 33.739985
Au 62.642577 50.489975 29.654569
Au 62.642577 50.489975 25.569153
Au 62.642577 54.575391 45.996228
Au 62.642577 54.575391 41.910813
Au 62.642577 54.575391 37.825401
Au 62.642577 54.575391 33.739985
Au 62.642577 54.575391 29.654569
Au 62.642577 58.660806 45.996228
Au 62.642577 58.660806 41.910813
Au 62.642577 58.660806 37.825401
Au 62.642577 58.660806 33.739985
Au 62.642577 62.746218 45.996228
Au 62.642577 62.746218 41.910813
Au 62.642577 62.746218 37.825401
Au 62.642577 66.831638 45.996228
Au 62.642577 66.831638 41.910813
Au 62.642577 70.917054 45.996228
Au 66.727993 50.489975 45.996228
Au 66.727993 50.489975 41.910813
Au 66.727993 50.489975 37.825401
Au 66.727993 50.489975 33.739985
Au 66.727993 50.489975 29.654569
Au 66.727993 54.575391 45.996228
Au 66.727993 54.575391 41.910813
Au 66.727993 54.575391 37.825401
Au 66.727993 54.575391 33.739985
Au 66.727993 58.660806 45.996228
Au 66.727993 58.660806 41.910813
Au 66.727993 58.660806 37.825401
Au 66.727993 62.746218 45.996228
Au 66.727993 62.746218 41.910813
Au 66.727993 66.831638 45.996228
Au 70.813409 50.489975 45.996228
Au 70.813409 50.489975 41.910813
Au 70.813409 50.489975 37.825401
Au 70.813409 50.489975 33.739985
Au 70.813409 54.575391 45.996228
Au 70.813409 54.575391 41.910813
Au 70.813409 54.575391 37.825401
Au 70.813409 58.660806 45.996228
Au 70.813409 58.660806 41.910813
Au 70.813409 62.746218 45.996228
Au 74.898825 50.489975 45.996228
Au 74.898825 50.489975 41.910813
Au 74.898825 50.489975 37.825401
Au 74.898825 54.575391 45.996228
Au 74.898825 54.575391 41.910813
Au 74.898825 58.660806 45.996228
Au 54.471750 52.532682 48.038937
Au 54.471750 52.532682 43.953521
Au 54.471750 52.532682 39.868105
Au 54.471750 52.532682 35.782693
Au 54.471750 52.532682 31.697277
Au 54.471750 52.532682 27.611862
Au 54.471750 56.618098 48.038937
Au 54.471750 56.618098 43.953521
Au 54.471750 56.618098 39.868105
Au 54.471750 56.618098 35.782693
Au 54.471750 56.618098 31.697277
Au 54.471750 56.618098 27.611862
Au 54.471750 60.703514 48.038937
Au 54.471750 60.703514 43.953521
Au 54.471750 60.703514 39.868105
Au 54.471750 60.703514 35.782693
Au 54.471750 60.703514 31.697277
Au 54.471750 60.703514 27.611862
Au 54.471750 64.788926 48.038937
Au 54.471750 64.788926 43.953521
Au 54.471750 64.788926 39.868105
Au 54.471750 64.788926 35.782693
Au 54.471750 64.788926 31.697277
Au 54.471750 68.874342 48.038937
Au 54.471750 68.874342 43.953521
Au 54.471750 68.874342 39.868105
Au 54.471750 68.874342 35.782693
Au 54.471750 72.959757 48.038937
Au 54.471750 72.959757 43.953521
Au 54.471750 72.959757 39.868105
Au 58.557162 52.532682 48.038937
Au 58.557162 52.532682 43.953521
Au 58.557162 52.532682 39.868105
Au 58.557162 52.532682 35.782693
Au 58.557162 52.532682 31.697277
Au 58.557162 52.532682 27.611862
Au 58.557162 56.618098 48.038937
Au 58.557162 56.618098 43.953521
Au 58.557162 56.618098 39.868105
Au 58.557162 56.618098 35.782693
Au 58.557162 56.618098 31.697277
Au 58.557162 56.618098 27.611862
Au 58.557162 60.703514 48.038937
Au 58.557162 60.703514 43.953521
Au 58.557162 60.703514 39.868105
Au 58.557162 60.703514 35.782693
Au 58.557162 60.703514 31.697277
Au 58.557162 64.788926 48.038937
Au 58.557162 64.788926 43.953521
Au 58.557162 64.788926 39.868105
Au 58.557162 64.788926 35.782693
Au 58.557162 68.874342 48.038937
Au 58.557162 68.874342 43.953521
Au 58.557162 68.874342 39.868105
Au 58.557162 72.959757 48.038937
Au 58.557162 72.959757 43.953521
Au 62.642577 52.532682 48.038937
Au 62.642577 52.532682 43.953521
Au 62.642577 52.532682 39.868105
Au 62.642577 52.532682 35.782693
Au 62.642577 52.532682 31.697277
Au 62.642577 52.532682 27.611862
Au 62.642577 56.618098 48.038937
Au 62.642577 56.618098 43.953521
Au 62.642577 56.618098 39.868105
Au 62.642577 56.618098 35.782693
Au 62.642577 56.618098 31.697277
Au 62.642577 60.703514 48.038937
Au 62.642577 60.703514 43.953521
Au 62.642577 60.703514 39.868105
Au 62.642577 60.703514 35.782693
Au 62.642577 64.788926 48.038937
Au 62.642577 64.788926 43.953521
Au 62.642577 64.788926 39.868105
Au 62.642577 68.874342 48.038937
Au 62.642577 68.874342 43.953521
Au 62.642577 72.959757 48.038937
Au 66.727993 52.532682 48.038937
Au 66.727993 52.532682 43.953521
Au 66.727993 52.532682 39.868105
Au 66.727993 52.532682 35.782693
Au 66.727993 52.532682 31.697277
Au 66.727993 56.618098 48.038937
Au 66.727993 56.618098 43.953521
Au 66.727993 56.618098 39.868105
Au 66.727993 56.618098 35.782693
Au 66.727993 60.703514 48.038937
Au 66.727993 60.703514 43.953521
Au 66.727993 60.703514 39.868105
Au 66.727993 64.788926 48.038937
Au 66.727993 64.788926 43.953521
Au 66.727993 68.874342 48.038937
Au 70.813409 52.532682 48.038937
Au 70.813409 52.532682 43.953521
Au 70.813409 52.532682 39.868105
Au 70.813409 52.532682 35.782693
Au 70.813409 56.618098 48.038937
Au 70.813409 56.618098 43.953521
Au 70.813409 56.618098 39.868105
Au 70.813409 60.703514 48.038937
Au 70.813409 60.703514 43.953521
Au 70.813409 64.788926 48.038937
Au 74.898825 52.532682 48.038937
Au 74.898825 52.532682 43.953521
Au 74.898825 52.532682 39.868105
Au 74.898825 56.618098 48.038937
Au 74.898825 56.618098 43.953521
Au 74.898825 60.703514 48.038937
Au 52.429042 50.489975 48.038937
Au 52.429042 50.489975 43.953521
Au 52.429042 50.489975 39.868105
Au 52.429042 50.489975 35.782693
Au 52.429042 50.489975 31.697277
Au 52.429042 50.489975 27.611862
Au 52.429042 54.575391 48.038937
Au 52.429042 54.575391 43.953521
Au 52.429042 54.575391 39.868105
Au 52.429042 54.575391 35.782693
Au 52.429042 54.575391 31.697277
Au 52.429042 54.575391 27.611862
Au 52.429042 58.660806 48.038937
Au 52.429042 58.660806 43.953521
Au 52.429042 58.660806 39.868105
Au 52.429042 58.660806 35.782693
Au 52.429042 58.660806 31.697277
Au 52.429042 58.660806 27.611862
Au 52.429042 62.746218 48.038937
Au 52.429042 62.746218 43.953521
Au 52.429042 62.746218 39.868105
Au 52.429042 62.746218 35.782693
Au 52.429042 62.746218 31.697277
Au 52.429042 62.746218 27.611862
Au 52.429042 66.831638 48.038937
Au 52.429042 66.831638 43.953521
Au 52.429042 66.831638 39.868105
Au 52.429042 66.831638 35.782693
Au 52.429042 66.831638 31.697277
Au 52.429042 70.917054 48.038937
Au 52.429042 70.917054 43.953521
Au 52.429042 70.917054 39.868105
Au 52.429042 70.917054 35.782693
Au 52.429042 75.002462 48.038937
Au 52.429042 75.002462 43.953521
Au 52.429042 75.002462 39.868105
Au 56.514454 50.489975 48.038937
Au 56.514454 50.489975 43.953521
Au 56.514454 50.489975 39.868105
Au 56.514454 50.489975 35.782693
Au 56.514454 50.489975 31.697277
Au 56.514454 50.489975 27.611862
Au 56.514454 54.575391 48.038937
Au 56.514454 54.575391 43.953521
Au 56.514454 54.575391 39.868105
Au 56.514454 54.575391 35.782693
Au 56.514454 54.575391 31.697277
Au 56.514454 54.575391 27.611862
Au 56.514454 58.660806 48.038937
Au 56.514454 58.660806 43.953521
Au 56.514454 58.660806 39.868105
Au 56.514454 58.660806 35.782693
Au 56.514454 58.660806 31.697277
Au 56.514454 58.660806 27.611862
Au 56.514454 62.746218 48.038937
Au 56.514454 62.746218 43.953521
Au 56.514454 62.746218 39.868105
Au 56.514454 62.746218 35.782693
Au 56.514454 62.746218 31.697277
Au 56.514454 66.831638 48.038937
Au 56.514454 66.831638 43.953521
Au 56.514454 66.831638 39.868105
Au 56.514454 66.831638 35.782693
Au 56.514454 70.917054 48.038937
Au 56.514454 70.917054 43.953521
Au 56.514454 70.917054 39.868105
Au 56.514454 75.002462 48.038937
Au 56.514454 75.002462 43.953521
Au 60.599870 50.489975 48.038937
Au 60.599870 50.489975 43.953521
Au 60.599870 50.489975 39.868105
Au 60.599870 50.489975 35.782693
Au 60.599870 50.489975 31.697277
Au 60.599870 50.489975 27.611862
Au 60.599870 54.575391 48.038937
Au 60.599870 54.575391 43.953521
Au 60.599870 54.575391 39.868105
Au 60.599870 54.575391 35.782693
Au 60.599870 54.575391 31.697277
Au 60.599870 54.575391 27.611862
Au 60.599870 58.660806 48.038937
Au 60.599870 58.660806 43.953521
Au 60.599870 58.660806 39.868105
Au 60.599870 58.660806 35.782693
Au 60.599870 58.660806 31.697277
Au 60.599870 62.746218 48.038937
Au 60.599870 62.746218 43.953521
Au 60.599870 62.746218 39.868105
Au 60.599870 62.746218 35.782693
Au 60.599870 66.831638 48.038937
Au 60.599870 66.831638 43.953521
Au 60.599870 66.831638 39.868105
Au 60.599870 70.917054 48.038937
Au 60.599870 70.917054 43.953521
Au 60.599870 75.002462 48.038937
Au 64.685290 50.489975 48.038937
Au 64.685290 50.489975 43.953521
Au 64.685290 50.489975 39.868105
Au 64.685290 50.489975 35.782693
Au 64.685290 50.489975 31.697277
Au 64.685290 50.489975 27.611862
Au 64.685290 54.575391 48.038937
Au 64.685290 54.575391 43.953521
Au 64.685290 54.575391 39.868105
Au 64.685290 54.575391 35.782693
Au 64.685290 54.575391 31.697277
Au 64.685290 58.660806 48.038937
Au 64.685290 58.660806 43.953521
Au 64.685290 58.660806 39.868105
Au 64.685290 58.660806 35.782693
Au 64.685290 62.746218 48.038937
Au 64.685290 62.746218 43.953521
Au 64.685290 62.746218 39.868105
Au 64.685290 66.831638 48.038937
Au 64.685290 66.831638 43.953521
Au 64.685290 70.917054 48.038937
Au 68.770697 50.489975 48.038937
Au 68.770697 50.489975 43.953521
Au 68.770697 50.489975 39.868105
Au 68.770697 50.489975 35.782693
Au 68.770697 50.489975 31.697277
Au 68.770697 54.575391 48.038937
Au 68.770697 54.575391 43.953521
Au 68.770697 54.575391 39.868105
Au 68.770697 54.575391 35.782693
Au 68.770697 58.660806 48.038937
Au 68.770697 58.660806 43.953521
Au 68.770697 58.660806 39.868105
Au 68.770697 62.746218 48.038937
Au 68.770697 62.746218 43.953521
Au 68.770697 66.831638 48.038937
Au 72.856112 50.489975 48.038937
Au 72.856112 50.489975 43.953521
Au 72.856112 50.489975 39.868105
Au 72.856112 50.489975 35.782693
Au 72.856112 54.575391 48.038937
Au 72.856112 54.575391 43.953521
Au 72.856112 54.575391 39.868105
Au 72.856112 58.660806 48.038937
Au 72.856112 58.660806 43.953521
Au 72.856112 62.746218 48.038937
Au 52.429042 52.532682 45.996228
Au 52.429042 52.532682 41.910813
Au 52.429042 52.532682 37.825401
Au 52.429042 52.532682 33.739985
Au 52.429042 52.532682 29.654569
Au 52.429042 52.532682 25.569153
Au 52.429042 56.618098 45.996228
Au 52.429042 56.618098 41.910813
Au 52.429042 56.618098 37.825401
Au 52.429042 56.618098 33.739985
Au 52.429042 56.618098 29.654569
Au 52.429042 56.618098 25.569153
Au 52.429042 60.703514 45.996228
Au 52.429042 60.703514 41.910813
Au 52.429042 60.703514 37.825401
Au 52.429042 60.703514 33.739985
Au 52.429042 60.703514 29.654569
Au 52.429042 60.703514 25.569153
Au 52.429042 64.788926 45.996228
Au 52.429042 64.788926 41.910813
Au 52.429042 64.788926 37.825401
Au 52.429042 64.788926 33.739985
Au 52.429042 64.788926 29.654569
Au 52.429042 68.874342 45.996228
Au 52.429042 68.874342 41.910813
Au 52.429042 68.874342 37.825401
Au 52.429042 68.874342 33.739985
Au 52.429042 72.959757 45.996228
Au 52.429042 72.959757 41.910813
Au 52.429042 72.959757 37.825401
Au 56.514454 52.532682 45.996228
Au 56.514454 52.532682 41.910813
Au 56.514454 52.532682 37.825401
Au 56.514454 52.532682 33.739985
Au 56.514454 52.532682 29.654569
Au 56.514454 52.532682 25.569153
Au 56.514454 56.618098 45.996228
Au 56.514454 56.618098 41.910813
Au 56.514454 56.618098 37.825401
Au 56.514454 56.618098 33.739985
Au 56.514454 56.618098 29.654569
Au 56.514454 56.618098 25.569153
Au 56.514454 60.703514 45.996228
Au 56.514454 60.703514 41.910813
Au 56.514454 60.703514 37.825401
Au 56.514454 60.703514 33.739985
Au 56.514454 60.703514 29.654569
Au 56.514454 64.788926 45.996228
Au 56.514454 64.788926 41.910813
Au 56.514454 64.788926 37.825401
Au 56.514454 64.788926 33.739985
Au 56.514454 68.874342 45.996228
Au 56.514454 68.874342 41.910813
Au 56.514454 68.874342 37.825401
Au 56.514454 72.959757 45.996228
Au 56.514454 72.959757 41.910813
Au 60.599870 52.532682 45.996228
Au 60.599870 52.532682 41.910813
Au 60.599870 52.532682 37.825401
Au 60.599870 52.532682 33.739985
Au 60.599870 52.532682 29.654569
Au 60.599870 52.532682 25.569153
Au 60.599870 56.618098 45.996228
Au 60.599870 56.618098 41.910813
Au 60.599870 56.618098 37.825401
Au 60.599870 56.618098 33.739985
Au 60.599870 56.618098 29.654569
Au 60.599870 60.703514 45.996228
Au 60.599870 60.703514 41.910813
Au 60.599870 60.703514 37.825401
Au 60.599870 60.703514 33.739985
Au 60.599870 64.788926 45.996228
Au 60.599870 64.788926 41.910813
Au 60.599870 64.788926 37.825401
Au 60.599870 68.874342 45.996228
Au 60.599870 68.874342 41.910813
Au 60.599870 72.959757 45.996228
Au 64.685290 52.532682 45.996228
Au 64.685290 52.532682 41.910813
Au 64.685290 52.532682 37.825401
Au 64.685290 52.532682 33.739985
Au 64.685290 52.532682 29.654569
Au 64.685290 56.618098 45.996228
Au 64.685290 56.618098 41.910813
Au 64.685290 56.618098 37.825401
Au 64.685290 56.618098 33.739985
Au 64.685290 60.703514 45.996228
Au 64.685290 60.703514 41.910813
Au 64.685290 60.703514 37.825401
Au 64.685290 64.788926 45.996228
Au 64.685290 64.788926 41.910813
Au 64.685290 68.874342 45.996228
Au 68.770697 52.532682 45.996228
Au 68.770697 52.532682 41.910813
Au 68.770697 52.532682 37.825401
Au 68.770697 52.532682 33.739985
Au 68.770697 56.618098 45.996228
Au 68.770697 56.618098 41.910813
Au 68.770697 56.618098 37.825401
Au 68.770697 60.703514 45.996228
Au 68.770697 60.703514 41.910813
Au 68.770697 64.788926 45.996228
Au 72.856112 52.532682 45.996228
Au 72.856112 52.532682 41.910813
Au 72.856112 52.532682 37.825401
Au 72.856112 56.618098 45.996228
Au 72.856112 56.618098 41.910813
Au 72.856112 60.703514 45.996228
Au 50.386334 54.575391 45.996228
Au 50.386334 54.575391 41.910813
Au 50.386334 54.575391 37.825401
Au 50.386334 54.575391 33.739985
Au 50.386334 54.575391 29.654569
Au 50.386334 54.575391 25.569153
Au 46.300918 54.575391 45.996228
Au 46.300918 54.575391 41.910813
Au 46.300918 54.575391 37.825401
Au 46.300918 54.575391 33.739985
Au 46.300918 54.575391 29.654569
Au 46.300918 54.575391 25.569153
Au 42.215502 54.575391 45.996228
Au 42.215502 54.575391 41.910813
Au 42.215502 54.575391 37.825401
Au 42.215502 54.575391 33.739985
Au 42.215502 54.575391 29.654569
Au 42.215502 54.575391 25.569153
Au 38.130086 54.575391 45.996228
Au 38.130086 54.575391 41.910813
Au 38.130086 54.575391 37.825401
Au 38.130086 54.575391 33.739985
Au 38.130086 54.575391 29.654569
Au 34.044674 54.575391 45.996228
Au 34.044674 54.575391 41.910813
Au 34.044674 54.575391 37.825401
Au 34.044674 54.575391 33.739985
Au 29.959259 54.575391 45.996228
Au 29.959259 54.575391 41.910813
Au 29.959259 54.575391 37.825401
Au 25.873843 54.575391 45.996228
Au 25.873843 54.575391 41.910813
Au 50.386334 58.660806 45.996228
Au 50.386334 58.660806 41.910813
Au 50.386334 58.660806 37.825401
Au 50.386334 58.660806 33.739985
Au 50.386334 58.660806 29.654569
Au 50.386334 58.660806 25.569153
Au 46.300918 58.660806 45.996228
Au 46.300918 58.660806 41.910813
Au 46.300918 58.660806 37.825401
Au 46.300918 58.660806 33.739985
Au 46.300918 58.660806 29.654569
Au 46.300918 58.660806 25.569153
Au 42.215502 58.660806 45.996228
Au 42.215502 58.660806 41.910813
Au 42.215502 58.660806 37.825401
Au 42.215502 58.660806 33.739985
Au 42.215502 58.660806 29.654569
Au 38.130086 58.660806 45.996228
Au 38.130086 58.660806 41.910813
Au 38.130086 58.660806 37.825401
Au 38.130086 58.660806 33.739985
Au 34.044674 58.660806 45.996228
Au 34.044674 58.660806 41.910813
Au 34.044674 58.660806 37.825401
Au 29.959259 58.660806 45.996228
Au 29.959259 58.660806 41.910813
Au 25.873843 58.660806 45.996228
Au 50.386334 62.746218 45.996228
Au 50.386334 62.746218 41.910813
Au 50.386334 62.746218 37.825401
Au 50.386334 62.746218 33.739985
Au 50.386334 62.746218 29.654569
Au 50.386334 62.746218 25.569153
Au 46.300918 62.746218 45.996228
Au 46.300918 62.746218 41.910813
Au 46.300918 62.746218 37.825401
Au 46.300918 62.746218 33.739985
Au 46.300918 62.746218 29.654569
Au 42.215502 62.746218 45.996228
Au 42.215502 62.746218 41.910813
Au 42.215502 62.746218 37.825401
Au 42.215502 62.746218 33.739985
Au 38.130086 62.746218 45.996228
Au 38.130086 62.746218 41.910813
Au 38.130086 62.746218 37.825401
Au 34.044674 62.746218 45.996228
Au 34.044674 62.746218 41.910813
Au 29.959259 62.746218 45.996228
Au 50.386334 66.831638 45.996228
Au 50.386334 66.831638 41.910813
Au 50.386334 66.831638 37.825401
Au 50.386334 66.831638 33.739985
Au 50.386334 66.831638 29.654569
Au 46.300918 66.831638 45.996228
Au 46.300918 66.831638 41.910813
Au 46.300918 66.831638 37.825401
Au 46.300918 66.831638 33.739985
Au 42.215502 66.831638 45.996228
Au 42.215502 66.831638 41.910813
Au 42.215502 66.831638 37.825401
Au 38.130086 66.831638 45.996228
Au 38.130086 66.831638 41.910813
Au 34.044674 66.831638 45.996228
Au 50.386334 70.917054 45.996228
Au 50.386334 70.917054 41.910813
Au 50.386334 70.917054 37.825401
Au 50.386334 70.917054 33.739985
Au 46.300918 70.917054 45.996228
Au 46.300918 70.917054 41.910813
Au 46.300918 70.917054 37.825401
Au 42.215502 70.917054 45.996228
Au 42.215502 70.917054 41.910813
Au 38.130086 70.917054 45.996228
Au 50.386334 75.002462 45.996228
Au 50.386334 75.002462 41.910813
Au 50.386334 75.002462 37.825401
Au 46.300918 75.002462 45.996228
Au 46.300918 75.002462 41.910813
Au 42.215502 75.002462 45.996228
Au 48.343626 54.575391 48.038937
Au 48.343626 54.575391 43.953521
Au 48.343626 54.575391 39.868105
Au 48.343626 54.575391 35.782693
Au 48.343626 54.575391 31.697277
Au 48.343626 54.575391 27.611862
Au 44.258211 54.575391 48.038937
Au 44.258211 54.575391 43.953521
Au 44.258211 54.575391 39.868105
Au 44.258211 54.575391 35.782693
Au 44.258211 54.575391 31.697277
Au 44.258211 54.575391 27.611862
Au 40.172795 54.575391 48.038937
Au 40.172795 54.575391 43.953521
Au 40.172795 54.575391 39.868105
Au 40.172795 54.575391 35.782693
Au 40.172795 54.575391 31.697277
Au 40.172795 54.575391 27.611862
Au 36.087383 54.575391 48.038937
Au 36.087383 54.575391 43.953521
Au 36.087383 54.575391 39.868105
Au 36.087383 54.575391 35.782693
Au 36.087383 54.575391 31.697277
Au 32.001965 54.575391 48.038937
Au 32.001965 54.575391 43.953521
Au 32.001965 54.575391 39.868105
Au 32.001965 54.575391 35.782693
Au 27.916551 54.575391 48.038937
Au 27.916551 54.575391 43.953521
Au 27.916551 54.575391 39.868105
Au 48.343626 58.660806 48.038937
Au 48.343626 58.660806 43.953521
Au 48.343626 58.660806 39.868105
Au 48.343626 58.660806 35.782693
Au 48.343626 58.660806 31.697277
Au 48.343626 58.660806 27.611862
Au 44.258211 58.660806 48.038937
Au 44.258211 58.660806 43.953521
Au 44.258211 58.660806 39.868105
Au 44.258211 58.660806 35.782693
Au 44.258211 58.660806 31.697277
Au 44.258211 58.660806 27.611862
Au 40.172795 58.660806 48.038937
Au 40.172795 58.660806 43.953521
Au 40.172795 58.660806 39.868105
Au 40.172795 58.660806 35.782693
Au 40.172795 58.660806 31.697277
Au 36.087383 58.660806 48.038937
Au 36.087383 58.660806 43.953521
Au 36.087383 58.660806 39.868105
Au 36.087383 58.660806 35.782693
Au 32.001965 58.660806 48.038937
Au 32.001965 58.660806 43.953521
Au 32.001965 58.660806 39.868105
Au 27.916551 58.660806 48.038937
Au 27.916551 58.660806 43.953521
Au 48.343626 62.746218 48.038937
Au 48.343626 62.746218 43.953521
Au 48.343626 62.746218 39.868105
Au 48.343626 62.746218 35.782693
Au 48.343626 62.746218 31.697277
Au 48.343626 62.746218 27.611862
Au 44.258211 62.746218 48.038937
Au 44.258211 62.746218 43.953521
Au 44.258211 62.746218 39.868105
Au 44.258211 62.746218 35.782693
Au 44.258211 62.746218 31.697277
Au 40.172795 62.746218 48.038937
Au 40.172795 62.746218 43.953521
Au 40.172795 62.746218 39.868105
Au 40.172795 62.746218 35.782693
Au 36.087383 62.746218 48.038937
Au 36.087383 62.746218 43.953521
Au 36.087383 62.746218 39.868105
Au 32.001965 62.746218 48.038937
Au 32.001965 62.746218 43.953521
Au 27.916551 62.746218 48.038937
Au 48.343626 66.831638 48.038937
Au 48.343626 66.831638 43.953521
Au 48.343626 66.831638 39.868105
Au 48.343626 66.831638 35.782693
Au 48.343626 66.831638 31.697277
Au 44.258211 66.831638 48.038937
Au 44.258211 66.831638 43.953521
Au 44.258211 66.831638 39.868105
Au 44.258211 66.831638 35.782693
Au 40.172795 66.831638 48.038937
Au 40.172795 66.831638 43.953521
Au 40.172795 66.831638 39.868105
Au 36.087383 66.831638 48.038937
Au 36.087383 66.831638 43.953521
Au 32.001965 66.831638 48.038937
Au 48.343626 70.917054 48.038937
Au 48.343626 70.917054 43.953521
Au 48.343626 70.917054 39.868105
Au 48.343626 70.917054 35.782693
Au 44.258211 70.917054 48.038937
Au 44.258211 70.917054 43.953521
Au 44.258211 70.917054 39.868105
Au 40.172795 70.917054 48.038937
Au 40.172795 70.917054 43.953521
Au 36.087383 70.917054 48.038937
Au 48.343626 75.002462 48.038937
Au 48.343626 75.002462 43.953521
Au 48.343626 75.002462 39.868105
Au 44.258211 75.002462 48.038937
Au 44.258211 75.002462 43.953521
Au 40.172795 75.002462 48.038937
Au 50.386334 52.532682 48.038937
Au 50.386334 52.532682 43.953521
Au 50.386334 52.532682 39.868105
Au 50.386334 52.532682 35.782693
Au 50.386334 52.532682 31.697277
Au 50.386334 52.532682 27.611862
Au 46.300918 52.532682 48.038937
Au 46.300918 52.532682 43.953521
Au 46.300918 52.532682 39.868105
Au 46.300918 52.532682 35.782693
Au 46.300918 52.532682 31.697277
Au 46.300918 52.532682 27.611862
Au 42.215502 52.532682 48.038937
Au 42.215502 52.532682 43.953521
Au 42.215502 52.532682 39.868105
Au 42.215502 52.532682 35.782693
Au 42.215502 52.532682 31.697277
Au 42.215502 52.532682 27.611862
Au 38.130086 52.532682 48.038937
Au 38.130086 52.532682 43.953521
Au 38.130086 52.532682 39.868105
Au 38.130086 52.532682 35.782693
Au 38.130086 52.532682 31.697277
Au 38.130086 52.532682 27.611862
Au 34.044674 52.532682 48.038937
Au 34.044674 52.532682 43.953521
Au 34.044674 52.532682 39.868105
Au 34.044674 52.532682 35.782693
Au 34.044674 52.532682 31.697277
Au 29.959259 52.532682 48.038937
Au 29.959259 52.532682 43.953521
Au 29.959259 52.532682 39.868105
Au 29.959259 52.532682 35.782693
Au 25.873843 52.532682 48.038937
Au 25.873843 52.532682 43.953521
Au 25.873843 52.532682 39.868105
Au 50.386334 56.618098 48.038937
Au 50.386334 56.618098 43.953521
Au 50.386334 56.618098 39.868105
Au 50.386334 56.618098 35.782693
Au 50.386334 56.618098 31.697277
Au 50.386334 56.618098 27.611862
Au 46.300918 56.618098 48.038937
Au 46.300918 56.618098 43.953521
Au 46.300918 56.618098 39.868105
Au 46.300918 56.618098 35.782693
Au 46.300918 56.618098 31.697277
Au 46.300918 56.618098 27.611862
Au 42.215502 56.618098 48.038937
Au 42.215502 56.618098 43.953521
Au 42.215502 56.618098 39.868105
Au 42.215502 56.618098 35.782693
Au 42.215502 56.618098 31.697277
Au 42.215502 56.618098 27.611862
Au 38.130086 56.618098 48.038937
Au 38.130086 56.618098 43.953521
Au 38.130086 56.618098 39.868105
Au 38.130086 56.618098 35.782693
Au 38.130086 56.618098 31.697277
Au 34.044674 56.618098 48.038937
Au 34.044674 56.618098 43.953521
Au 34.044674 56.618098 39.868105
Au 34.044674 56.618098 35.782693
Au 29.959259 56.618098 48.038937
Au 29.959259 56.618098 43.953521
Au 29.959259 56.618098 39.868105
Au 25.873843 56.618098 48.038937
Au 25.873843 56.618098 43.953521
Au 50.386334 60.703514 48.038937
Au 50.386334 60.703514 43.953521
Au 50.386334 60.703514 39.868105
Au 50.386334 60.703514 35.782693
Au 50.386334 60.703514 31.697277
Au 50.386334 60.703514 27.611862
Au 46.300918 60.703514 48.038937
Au 46.300918 60.703514 43.953521
Au 46.300918 60.703514 39.868105
Au 46.300918 60.703514 35.782693
Au 46.300918 60.703514 31.697277
Au 46.300918 60.703514 27.611862
Au 42.215502 60.703514 48.038937
Au 42.215502 60.703514 43.953521
Au 42.215502 60.703514 39.868105
Au 42.215502 60.703514 35.782693
Au 42.215502 60.703514 31.697277
Au 38.130086 60.703514 48.038937
Au 38.130086 60.703514 43.953521
Au 38.130086 60.703514 39.868105
Au 38.130086 60.703514 35.782693
Au 34.044674 60.703514 48.038937
Au 34.044674 60.703514 43.953521
Au 34.044674 60.703514 39.868105
Au 29.959259 60.703514 48.038937
Au 29.959259 60.703514 43.953521
Au 25.873843 60.703514 48.038937
Au 50.386334 64.788926 48.038937
Au 50.386334 64.788926 43.953521
Au 50.386334 64.788926 39.868105
Au 50.386334 64.788926 35.782693
Au 50.386334 64.788926 31.697277
Au 50.386334 64.788926 27.611862
Au 46.300918 64.788926 48.038937
Au 46.300918 64.788926 43.953521
Au 46.300918 64.788926 39.868105
Au 46.300918 64.788926 35.782693
Au 46.300918 64.788926 31.697277
Au 42.215502 64.788926 48.038937
Au 42.215502 64.788926 43.953521
Au 42.215502 64.788926 39.868105
Au 42.215502 64.788926 35.782693
Au 38.130086 64.788926 48.038937
Au 38.130086 64.788926 43.953521
Au 38.130086 64.788926 39.868105
Au 34.044674 64.788926 48.038937
Au 34.044674 64.788926 43.953521
Au 29.959259 64.788926 48.038937
Au 50.386334 68.874342 48.038937
Au 50.386334 68.874342 43.953521
Au 50.386334 68.874342 39.868105
Au 50.386334 68.874342 35.782693
Au 50.386334 68.874342 31.697277
Au 46.300918 68.874342 48.038937
Au 46.300918 68.874342 43.953521
Au 46.300918 68.874342 39.868105
Au 46.300918 68.874342 35.782693
Au 42.215502 68.874342 48.038937
Au 42.215502 68.874342 43.953521
Au 42.215502 68.874342 39.868105
Au 38.130086 68.874342 48.038937
Au 38.130086 68.874342 43.953521
Au 34.044674 68.874342 48.038937
Au 50.386334 72.959757 48.038937
Au 50.386334 72.959757 43.953521
Au 50.386334 72.959757 39.868105
Au 50.386334 72.959757 35.782693
Au 46.300918 72.959757 48.038937
Au 46.300918 72.959757 43.953521
Au 46.300918 72.959757 39.868105
Au 42.215502 72.959757 48.038937
Au 42.215502 72.959757 43.953521
Au 38.130086 72.959757 48.038937
Au 48.343626 52.532682 45.996228
Au 48.343626 52.532682 41.910813
Au 48.343626 52.532682 37.825401
Au 48.343626 52.532682 33.739985
Au 48.343626 52.532682 29.654569
Au 48.343626 52.532682 25.569153
Au 44.258211 52.532682 45.996228
Au 44.258211 52.532682 41.910813
Au 44.258211 52.532682 37.825401
Au 44.258211 52.532682 33.739985
Au 44.258211 52.532682 29.654569
Au 44.258211 52.532682 25.569153
Au 40.172795 52.532682 45.996228
Au 40.172795 52.532682 41.910813
Au 40.172795 52.532682 37.825401
Au 40.172795 52.532682 33.739985
Au 40.172795 52.532682 29.654569
Au 40.172795 52.532682 25.569153
Au 36.087383 52.532682 45.996228
Au 36.087383 52.532682 41.910813
Au 36.087383 52.532682 37.825401
Au 36.087383 52.532682 33.739985
Au 36.087383 52.532682 29.654569
Au 32.001965 52.532682 45.996228
Au 32.001965 52.532682 41.910813
Au 32.001965 52.532682 37.825401
Au 32.001965 52.532682 33.739985
Au 27.916551 52.532682 45.996228
Au 27.916551 52.532682 41.910813
Au 27.916551 52.532682 37.825401
Au 48.343626 56.618098 45.996228
Au 48.343626 56.618098 41.910813
Au 48.343626 56.618098 37.825401
Au 48.343626 56.618098 33.739985
Au 48.343626 56.618098 29.654569
Au 48.343626 56.618098 25.569153
Au 44.258211 56.618098 45.996228
Au 44.258211 56.618098 41.910813
Au 44.258211 56.618098 37.825401
Au 44.258211 56.618098 33.739985
Au 44.258211 56.618098 29.654569
Au 44.258211 56.618098 25.569153
Au 40.172795 56.618098 45.996228
Au 40.172795 56.618098 41.910813
Au 40.172795 56.618098 37.825401
Au 40.172795 56.618098 33.739985
Au 40.172795 56.618098 29.654569
Au 36.087383 56.618098 45.996228
Au 36.087383 56.618098 41.910813
Au 36.087383 56.618098 37.825401
Au 36.087383 56.618098 33.739985
Au 32.001965 56.618098 45.996228
Au 32.001965 56.618098 41.910813
Au 32.001965 56.618098 37.825401
Au 27.916551 56.618098 45.996228
Au 27.916551 56.618098 41.910813
Au 48.343626 60.703514 45.996228
Au 48.343626 60.703514 41.910813
Au 48.343626 60.703514 37.825401
Au 48.343626 60.703514 33.739985
Au 48.343626 60.703514 29.654569
Au 48.343626 60.703514 25.569153
Au 44.258211 60.703514 45.996228
Au 44.258211 60.703514 41.910813
Au 44.258211 60.703514 37.825401
Au 44.258211 60.703514 33.739985
Au 44.258211 60.703514 29.654569
Au 40.172795 60.703514 45.996228
Au 40.172795 60.703514 41.910813
Au 40.172795 60.703514 37.825401
Au 40.172795 60.703514 33.739985
Au 36.087383 60.703514 45.996228
Au 36.087383 60.703514 41.910813
Au 36.087383 60.703514 37.825401
Au 32.001965 60.703514 45.996228
Au 32.001965 60.703514 41.910813
Au 27.916551 60.703514 45.996228
Au 48.343626 64.788926 45.996228
Au 48.343626 64.788926 41.910813
Au 48.343626 64.788926 37.825401
Au 48.343626 64.788926 33.739985
Au 48.343626 64.788926 29.654569
Au 44.258211 64.788926 45.996228
Au 44.258211 64.788926 41.910813
Au 44.258211 64.788926 37.825401
Au 44.258211 64.788926 33.739985
Au 40.172795 64.788926 45.996228
Au 40.172795 64.788926 41.910813
Au 40.172795 64.788926 37.825401
Au 36.087383 64.788926 45.996228
Au 36.087383 64.788926 41.910813
Au 32.001965 64.788926 45.996228
Au 48.343626 68.874342 45.996228
Au 48.343626 68.874342 41.910813
Au 48.343626 68.874342 37.825401
Au 48.343626 68.874342 33.739985
Au 44.258211 68.874342 45.996228
Au 44.258211 68.874342 41.910813
Au 44.258211 68.874342 37.825401
Au 40.172795 68.874342 45.996228
Au 40.172795 68.874342 41.910813
Au 36.087383 68.874342 45.996228
Au 48.343626 72.959757 45.996228
Au 48.343626 72.959757 41.910813
Au 48.343626 72.959757 37.825401
Au 44.258211 72.959757 45.996228
Au 44.258211 72.959757 41.910813
Au 40.172795 72.959757 45.996228
Au 50.386334 50.489975 45.996228
Au 50.386334 50.489975 41.910813
Au 50.386334 50.489975 37.825401
Au 50.386334 50.489975 33.739985
Au 50.386334 50.489975 29.654569
Au 50.386334 50.489975 25.569153
