3999
Ag
Ag  -20.427079  -12.256248  -12.256248
Ag  -20.427079  -12.256248   -8.170832
Ag  -20.427079  -12.256248   -4.085416
Ag  -20.427079  -12.256248    0.000000
Ag  -20.427079  -12.256248    4.085416
Ag  -20.427079  -12.256248    8.170832
Ag  -20.427079  -12.256248   12.256248
Ag  -20.427079   -8.170832  -12.256248
Ag  -20.427079   -8.170832   -8.170832
Ag  -20.427079   -8.170832   -4.085416
Ag  -20.427079   -8.170832    0.000000
Ag  -20.427079   -8.170832    4.085416
Ag  -20.427079   -8.170832    8.170832
Ag  -20.427079   -8.170832   12.256248
Ag  -20.427079   -4.085416  -12.256248
Ag  -20.427079   -4.085416   -8.170832
Ag  -20.427079   -4.085416   -4.085416
Ag  -20.427079   -4.085416    0.000000
Ag  -20.427079   -4.085416    4.085416
Ag  -20.427079   -4.085416    8.170832
Ag  -20.427079   -4.085416   12.256248
Ag  -20.427079   -0.000000  -12.256248
Ag  -20.427079   -0.000000   -8.170832
Ag  -20.427079   -0.000000   -4.085416
Ag  -20.427079    0.000000    0.000000
Ag  -20.427079    0.000000    4.085416
Ag  -20.427079    0.000000    8.170832
Ag  -20.427079    0.000000   12.256248
Ag  -20.427079    4.085416  -12.256248
Ag  -20.427079    4.085416   -8.170832
Ag  -20.427079    4.085416   -4.085416
Ag  -20.427079    4.085416    0.000000
Ag  -20.427079    4.085416    4.085416
Ag  -20.427079    4.085416    8.170832
Ag  -20.427079    4.085416   12.256248
Ag  -20.427079    8.170832  -12.256248
Ag  -20.427079    8.170832   -8.170832
Ag  -20.427079    8.170832   -4.085416
Ag  -20.427079    8.170832    0.000000
Ag  -20.427079    8.170832    4.085416
Ag  -20.427079    8.170832    8.170832
Ag  -20.427079    8.170832   12.256248
Ag  -20.427079   12.256248  -12.256248
Ag  -20.427079   12.256248   -8.170832
Ag  -20.427079   12.256248   -4.085416
Ag  -20.427079   12.256248    0.000000
Ag  -20.427079   12.256248    4.085416
Ag  -20.427079   12.256248    8.170832
Ag  -20.427079   12.256248   12.256248
Ag  -16.341663  -16.341663  -16.341663
Ag  -16.341663  -16.341663  -12.256248
Ag  -16.341663  -16.341663   -8.170832
Ag  -16.341663  -16.341663   -4.085416
Ag  -16.341663  -16.341663    0.000000
Ag  -16.341663  -16.341663    4.085416
Ag  -16.341663  -16.341663    8.170832
Ag  -16.341663  -16.341663   12.256248
Ag  -16.341663  -16.341663   16.341663
Ag  -16.341663  -12.256248  -16.341663
Ag  -16.341663  -12.256248  -12.256248
Ag  -16.341663  -12.256248   -8.170832
Ag  -16.341663  -12.256248   -4.085416
Ag  -16.341663  -12.256248    0.000000
Ag  -16.341663  -12.256248    4.085416
Ag  -16.341663  -12.256248    8.170832
Ag  -16.341663  -12.256248   12.256248
Ag  -16.341663  -12.256248   16.341663
Ag  -16.341663   -8.170832  -16.341663
Ag  -16.341663   -8.170832  -12.256248
Ag  -16.341663   -8.170832   -8.170832
Ag  -16.341663   -8.170832   -4.085416
Ag  -16.341663   -8.170832    0.000000
Ag  -16.341663   -8.170832    4.085416
Ag  -16.341663   -8.170832    8.170832
Ag  -16.341663   -8.170832   12.256248
Ag  -16.341663   -8.170832   16.341663
Ag  -16.341663   -4.085416  -16.341663
Ag  -16.341663   -4.085416  -12.256248
Ag  -16.341663   -4.085416   -8.170832
Ag  -16.341663   -4.085416   -4.085416
Ag  -16.341663   -4.085416    0.000000
Ag  -16.341663   -4.085416    4.085416
Ag  -16.341663   -4.085416    8.170832
Ag  -16.341663   -4.085416   12.256248
Ag  -16.341663   -4.085416   16.341663
Ag  -16.341663   -0.000000  -16.341663
Ag  -16.341663   -0.000000  -12.256248
Ag  -16.341663   -0.000000   -8.170832
Ag  -16.341663   -0.000000   -4.085416
Ag  -16.341663    0.000000    0.000000
Ag  -16.341663    0.000000    4.085416
Ag  -16.341663    0.000000    8.170832
Ag  -16.341663    0.000000   12.256248
Ag  -16.341663    0.000000   16.341663
Ag  -16.341663    4.085416  -16.341663
Ag  -16.341663    4.085416  -12.256248
Ag  -16.341663    4.085416   -8.170832
Ag  -16.341663    4.085416   -4.085416
Ag  -16.341663    4.085416    0.000000
Ag  -16.341663    4.085416    4.085416
Ag  -16.341663    4.085416    8.170832
Ag  -16.341663    4.085416   12.256248
Ag  -16.341663    4.085416   16.341663
Ag  -16.341663    8.170832  -16.341663
Ag  -16.341663    8.170832  -12.256248
Ag  -16.341663    8.170832   -8.170832
Ag  -16.341663    8.170832   -4.085416
Ag  -16.341663    8.170832    0.000000
Ag  -16.341663    8.170832    4.085416
Ag  -16.341663    8.170832    8.170832
Ag  -16.341663    8.170832   12.256248
Ag  -16.341663    8.170832   16.341663
Ag  -16.341663   12.256248  -16.341663
Ag  -16.341663   12.256248  -12.256248
Ag  -16.341663   12.256248   -8.170832
Ag  -16.341663   12.256248   -4.085416
Ag  -16.341663   12.256248    0.000000
Ag  -16.341663   12.256248    4.085416
Ag  -16.341663   12.256248    8.170832
Ag  -16.341663   12.256248   12.256248
Ag  -16.341663   12.256248   16.341663
Ag  -16.341663   16.341663  -16.341663
Ag  -16.341663   16.341663  -12.256248
Ag  -16.341663   16.341663   -8.170832
Ag  -16.341663   16.341663   -4.085416
Ag  -16.341663   16.341663    0.000000
Ag  -16.341663   16.341663    4.085416
Ag  -16.341663   16.341663    8.170832
Ag  -16.341663   16.341663   12.256248
Ag  -16.341663   16.341663   16.341663
Ag  -12.256248  -20.427079  -12.256248
Ag  -12.256248  -20.427079   -8.170832
Ag  -12.256248  -20.427079   -4.085416
Ag  -12.256248  -20.427079    0.000000
Ag  -12.256248  -20.427079    4.085416
Ag  -12.256248  -20.427079    8.170832
Ag  -12.256248  -20.427079   12.256248
Ag  -12.256248  -16.341663  -16.341663
Ag  -12.256248  -16.341663  -12.256248
Ag  -12.256248  -16.341663   -8.170832
Ag  -12.256248  -16.341663   -4.085416
Ag  -12.256248  -16.341663    0.000000
Ag  -12.256248  -16.341663    4.085416
Ag  -12.256248  -16.341663    8.170832
Ag  -12.256248  -16.341663   12.256248
Ag  -12.256248  -16.341663   16.341663
Ag  -12.256248  -12.256248  -20.427079
Ag  -12.256248  -12.256248  -16.341663
Ag  -12.256248  -12.256248  -12.256248
Ag  -12.256248  -12.256248   -8.170832
Ag  -12.256248  -12.256248   -4.085416
Ag  -12.256248  -12.256248    0.000000
Ag  -12.256248  -12.256248    4.085416
Ag  -12.256248  -12.256248    8.170832
Ag  -12.256248  -12.256248   12.256248
Ag  -12.256248  -12.256248   16.341663
Ag  -12.256248  -12.256248   20.427079
Ag  -12.256248   -8.170832  -20.427079
Ag  -12.256248   -8.170832  -16.341663
Ag  -12.256248   -8.170832  -12.256248
Ag  -12.256248   -8.170832   -8.170832
Ag  -12.256248   -8.170832   -4.085416
Ag  -12.256248   -8.170832    0.000000
Ag  -12.256248   -8.170832    4.085416
Ag  -12.256248   -8.170832    8.170832
Ag  -12.256248   -8.170832   12.256248
Ag  -12.256248   -8.170832   16.341663
Ag  -12.256248   -8.170832   20.427079
Ag  -12.256248   -4.085416  -20.427079
Ag  -12.256248   -4.085416  -16.341663
Ag  -12.256248   -4.085416  -12.256248
Ag  -12.256248   -4.085416   -8.170832
Ag  -12.256248   -4.085416   -4.085416
Ag  -12.256248   -4.085416    0.000000
Ag  -12.256248   -4.085416    4.085416
Ag  -12.256248   -4.085416    8.170832
Ag  -12.256248   -4.085416   12.256248
Ag  -12.256248   -4.085416   16.341663
Ag  -12.256248   -4.085416   20.427079
Ag  -12.256248   -0.000000  -20.427079
Ag  -12.256248   -0.000000  -16.341663
Ag  -12.256248   -0.000000  -12.256248
Ag  -12.256248   -0.000000   -8.170832
Ag  -12.256248   -0.000000   -4.085416
Ag  -12.256248    0.000000    0.000000
Ag  -12.256248    0.000000    4.085416
Ag  -12.256248    0.000000    8.170832
Ag  -12.256248    0.000000   12.256248
Ag  -12.256248    0.000000   16.341663
Ag  -12.256248    0.000000   20.427079
Ag  -12.256248    4.085416  -20.427079
Ag  -12.256248    4.085416  -16.341663
Ag  -12.256248    4.085416  -12.256248
Ag  -12.256248    4.085416   -8.170832
Ag  -12.256248    4.085416   -4.085416
Ag  -12.256248    4.085416    0.000000
Ag  -12.256248    4.085416    4.085416
Ag  -12.256248    4.085416    8.170832
Ag  -12.256248    4.085416   12.256248
Ag  -12.256248    4.085416   16.341663
Ag  -12.256248    4.085416   20.427079
Ag  -12.256248    8.170832  -20.427079
Ag  -12.256248    8.170832  -16.341663
Ag  -12.256248    8.170832  -12.256248
Ag  -12.256248    8.170832   -8.170832
Ag  -12.256248    8.170832   -4.085416
Ag  -12.256248    8.170832    0.000000
Ag  -12.256248    8.170832    4.085416
Ag  -12.256248    8.170832    8.170832
Ag  -12.256248    8.170832   12.256248
Ag  -12.256248    8.170832   16.341663
Ag  -12.256248    8.170832   20.427079
Ag  -12.256248   12.256248  -20.427079
Ag  -12.256248   12.256248  -16.341663
Ag  -12.256248   12.256248  -12.256248
Ag  -12.256248   12.256248   -8.170832
Ag  -12.256248   12.256248   -4.085416
Ag  -12.256248   12.256248    0.000000
Ag  -12.256248   12.256248    4.085416
Ag  -12.256248   12.256248    8.170832
Ag  -12.256248   12.256248   12.256248
Ag  -12.256248   12.256248   16.341663
Ag  -12.256248   12.256248   20.427079
Ag  -12.256248   16.341663  -16.341663
Ag  -12.256248   16.341663  -12.256248
Ag  -12.256248   16.341663   -8.170832
Ag  -12.256248   16.341663   -4.085416
Ag  -12.256248   16.341663    0.000000
Ag  -12.256248   16.341663    4.085416
Ag  -12.256248   16.341663    8.170832
Ag  -12.256248   16.341663   12.256248
Ag  -12.256248   16.341663   16.341663
Ag  -12.256248   20.427079  -12.256248
Ag  -12.256248   20.427079   -8.170832
Ag  -12.256248   20.427079   -4.085416
Ag  -12.256248   20.427079    0.000000
Ag  -12.256248   20.427079    4.085416
Ag  -12.256248   20.427079    8.170832
Ag  -12.256248   20.427079   12.256248
Ag   -8.170832  -20.427079  -12.256248
Ag   -8.170832  -20.427079   -8.170832
Ag   -8.170832  -20.427079   -4.085416
Ag   -8.170832  -20.427079    0.000000
Ag   -8.170832  -20.427079    4.085416
Ag   -8.170832  -20.427079    8.170832
Ag   -8.170832  -20.427079   12.256248
Ag   -8.170832  -16.341663  -16.341663
Ag   -8.170832  -16.341663  -12.256248
Ag   -8.170832  -16.341663   -8.170832
Ag   -8.170832  -16.341663   -4.085416
Ag   -8.170832  -16.341663    0.000000
Ag   -8.170832  -16.341663    4.085416
Ag   -8.170832  -16.341663    8.170832
Ag   -8.170832  -16.341663   12.256248
Ag   -8.170832  -16.341663   16.341663
Ag   -8.170832  -12.256248  -20.427079
Ag   -8.170832  -12.256248  -16.341663
Ag   -8.170832  -12.256248  -12.256248
Ag   -8.170832  -12.256248   -8.170832
Ag   -8.170832  -12.256248   -4.085416
Ag   -8.170832  -12.256248    0.000000
Ag   -8.170832  -12.256248    4.085416
Ag   -8.170832  -12.256248    8.170832
Ag   -8.170832  -12.256248   12.256248
Ag   -8.170832  -12.256248   16.341663
Ag   -8.170832  -12.256248   20.427079
Ag   -8.170832   -8.170832  -20.427079
Ag   -8.170832   -8.170832  -16.341663
Ag   -8.170832   -8.170832  -12.256248
Ag   -8.170832   -8.170832   -8.170832
Ag   -8.170832   -8.170832   -4.085416
Ag   -8.170832   -8.170832    0.000000
Ag   -8.170832   -8.170832    4.085416
Ag   -8.170832   -8.170832    8.170832
Ag   -8.170832   -8.170832   12.256248
Ag   -8.170832   -8.170832   16.341663
Ag   -8.170832   -8.170832   20.427079
Ag   -8.170832   -4.085416  -20.427079
Ag   -8.170832   -4.085416  -16.341663
Ag   -8.170832   -4.085416  -12.256248
Ag   -8.170832   -4.085416   -8.170832
Ag   -8.170832   -4.085416   -4.085416
Ag   -8.170832   -4.085416    0.000000
Ag   -8.170832   -4.085416    4.085416
Ag   -8.170832   -4.085416    8.170832
Ag   -8.170832   -4.085416   12.256248
Ag   -8.170832   -4.085416   16.341663
Ag   -8.170832   -4.085416   20.427079
Ag   -8.170832   -0.000000  -20.427079
Ag   -8.170832   -0.000000  -16.341663
Ag   -8.170832   -0.000000  -12.256248
Ag   -8.170832   -0.000000   -8.170832
Ag   -8.170832   -0.000000   -4.085416
Ag   -8.170832    0.000000    0.000000
Ag   -8.170832    0.000000    4.085416
Ag   -8.170832    0.000000    8.170832
Ag   -8.170832    0.000000   12.256248
Ag   -8.170832    0.000000   16.341663
Ag   -8.170832    0.000000   20.427079
Ag   -8.170832    4.085416  -20.427079
Ag   -8.170832    4.085416  -16.341663
Ag   -8.170832    4.085416  -12.256248
Ag   -8.170832    4.085416   -8.170832
Ag   -8.170832    4.085416   -4.085416
Ag   -8.170832    4.085416    0.000000
Ag   -8.170832    4.085416    4.085416
Ag   -8.170832    4.085416    8.170832
Ag   -8.170832    4.085416   12.256248
Ag   -8.170832    4.085416   16.341663
Ag   -8.170832    4.085416   20.427079
Ag   -8.170832    8.170832  -20.427079
Ag   -8.170832    8.170832  -16.341663
Ag   -8.170832    8.170832  -12.256248
Ag   -8.170832    8.170832   -8.170832
Ag   -8.170832    8.170832   -4.085416
Ag   -8.170832    8.170832    0.000000
Ag   -8.170832    8.170832    4.085416
Ag   -8.170832    8.170832    8.170832
Ag   -8.170832    8.170832   12.256248
Ag   -8.170832    8.170832   16.341663
Ag   -8.170832    8.170832   20.427079
Ag   -8.170832   12.256248  -20.427079
Ag   -8.170832   12.256248  -16.341663
Ag   -8.170832   12.256248  -12.256248
Ag   -8.170832   12.256248   -8.170832
Ag   -8.170832   12.256248   -4.085416
Ag   -8.170832   12.256248    0.000000
Ag   -8.170832   12.256248    4.085416
Ag   -8.170832   12.256248    8.170832
Ag   -8.170832   12.256248   12.256248
Ag   -8.170832   12.256248   16.341663
Ag   -8.170832   12.256248   20.427079
Ag   -8.170832   16.341663  -16.341663
Ag   -8.170832   16.341663  -12.256248
Ag   -8.170832   16.341663   -8.170832
Ag   -8.170832   16.341663   -4.085416
Ag   -8.170832   16.341663    0.000000
Ag   -8.170832   16.341663    4.085416
Ag   -8.170832   16.341663    8.170832
Ag   -8.170832   16.341663   12.256248
Ag   -8.170832   16.341663   16.341663
Ag   -8.170832   20.427079  -12.256248
Ag   -8.170832   20.427079   -8.170832
Ag   -8.170832   20.427079   -4.085416
Ag   -8.170832   20.427079    0.000000
Ag   -8.170832   20.427079    4.085416
Ag   -8.170832   20.427079    8.170832
Ag   -8.170832   20.427079   12.256248
Ag   -4.085416  -20.427079  -12.256248
Ag   -4.085416  -20.427079   -8.170832
Ag   -4.085416  -20.427079   -4.085416
Ag   -4.085416  -20.427079    0.000000
Ag   -4.085416  -20.427079    4.085416
Ag   -4.085416  -20.427079    8.170832
Ag   -4.085416  -20.427079   12.256248
Ag   -4.085416  -16.341663  -16.341663
Ag   -4.085416  -16.341663  -12.256248
Ag   -4.085416  -16.341663   -8.170832
Ag   -4.085416  -16.341663   -4.085416
Ag   -4.085416  -16.341663    0.000000
Ag   -4.085416  -16.341663    4.085416
Ag   -4.085416  -16.341663    8.170832
Ag   -4.085416  -16.341663   12.256248
Ag   -4.085416  -16.341663   16.341663
Ag   -4.085416  -12.256248  -20.427079
Ag   -4.085416  -12.256248  -16.341663
Ag   -4.085416  -12.256248  -12.256248
Ag   -4.085416  -12.256248   -8.170832
Ag   -4.085416  -12.256248   -4.085416
Ag   -4.085416  -12.256248    0.000000
Ag   -4.085416  -12.256248    4.085416
Ag   -4.085416  -12.256248    8.170832
Ag   -4.085416  -12.256248   12.256248
Ag   -4.085416  -12.256248   16.341663
Ag   -4.085416  -12.256248   20.427079
Ag   -4.085416   -8.170832  -20.427079
Ag   -4.085416   -8.170832  -16.341663
Ag   -4.085416   -8.170832  -12.256248
Ag   -4.085416   -8.170832   -8.170832
Ag   -4.085416   -8.170832   -4.085416
Ag   -4.085416   -8.170832    0.000000
Ag   -4.085416   -8.170832    4.085416
Ag   -4.085416   -8.170832    8.170832
Ag   -4.085416   -8.170832   12.256248
Ag   -4.085416   -8.170832   16.341663
Ag   -4.085416   -8.170832   20.427079
Ag   -4.085416   -4.085416  -20.427079
Ag   -4.085416   -4.085416  -16.341663
Ag   -4.085416   -4.085416  -12.256248
Ag   -4.085416   -4.085416   -8.170832
Ag   -4.085416   -4.085416   -4.085416
Ag   -4.085416   -4.085416    0.000000
Ag   -4.085416   -4.085416    4.085416
Ag   -4.085416   -4.085416    8.170832
Ag   -4.085416   -4.085416   12.256248
Ag   -4.085416   -4.085416   16.341663
Ag   -4.085416   -4.085416   20.427079
Ag   -4.085416   -0.000000  -20.427079
Ag   -4.085416   -0.000000  -16.341663
Ag   -4.085416   -0.000000  -12.256248
Ag   -4.085416   -0.000000   -8.170832
Ag   -4.085416   -0.000000   -4.085416
Ag   -4.085416    0.000000    0.000000
Ag   -4.085416    0.000000    4.085416
Ag   -4.085416    0.000000    8.170832
Ag   -4.085416    0.000000   12.256248
Ag   -4.085416    0.000000   16.341663
Ag   -4.085416    0.000000   20.427079
Ag   -4.085416    4.085416  -20.427079
Ag   -4.085416    4.085416  -16.341663
Ag   -4.085416    4.085416  -12.256248
Ag   -4.085416    4.085416   -8.170832
Ag   -4.085416    4.085416   -4.085416
Ag   -4.085416    4.085416    0.000000
Ag   -4.085416    4.085416    4.085416
Ag   -4.085416    4.085416    8.170832
Ag   -4.085416    4.085416   12.256248
Ag   -4.085416    4.085416   16.341663
Ag   -4.085416    4.085416   20.427079
Ag   -4.085416    8.170832  -20.427079
Ag   -4.085416    8.170832  -16.341663
Ag   -4.085416    8.170832  -12.256248
Ag   -4.085416    8.170832   -8.170832
Ag   -4.085416    8.170832   -4.085416
Ag   -4.085416    8.170832    0.000000
Ag   -4.085416    8.170832    4.085416
Ag   -4.085416    8.170832    8.170832
Ag   -4.085416    8.170832   12.256248
Ag   -4.085416    8.170832   16.341663
Ag   -4.085416    8.170832   20.427079
Ag   -4.085416   12.256248  -20.427079
Ag   -4.085416   12.256248  -16.341663
Ag   -4.085416   12.256248  -12.256248
Ag   -4.085416   12.256248   -8.170832
Ag   -4.085416   12.256248   -4.085416
Ag   -4.085416   12.256248    0.000000
Ag   -4.085416   12.256248    4.085416
Ag   -4.085416   12.256248    8.170832
Ag   -4.085416   12.256248   12.256248
Ag   -4.085416   12.256248   16.341663
Ag   -4.085416   12.256248   20.427079
Ag   -4.085416   16.341663  -16.341663
Ag   -4.085416   16.341663  -12.256248
Ag   -4.085416   16.341663   -8.170832
Ag   -4.085416   16.341663   -4.085416
Ag   -4.085416   16.341663    0.000000
Ag   -4.085416   16.341663    4.085416
Ag   -4.085416   16.341663    8.170832
Ag   -4.085416   16.341663   12.256248
Ag   -4.085416   16.341663   16.341663
Ag   -4.085416   20.427079  -12.256248
Ag   -4.085416   20.427079   -8.170832
Ag   -4.085416   20.427079   -4.085416
Ag   -4.085416   20.427079    0.000000
Ag   -4.085416   20.427079    4.085416
Ag   -4.085416   20.427079    8.170832
Ag   -4.085416   20.427079   12.256248
Ag   -0.000000  -20.427079  -12.256248
Ag   -0.000000  -20.427079   -8.170832
Ag   -0.000000  -20.427079   -4.085416
Ag   -0.000000  -20.427079    0.000000
Ag   -0.000000  -20.427079    4.085416
Ag   -0.000000  -20.427079    8.170832
Ag   -0.000000  -20.427079   12.256248
Ag   -0.000000  -16.341663  -16.341663
Ag   -0.000000  -16.341663  -12.256248
Ag   -0.000000  -16.341663   -8.170832
Ag   -0.000000  -16.341663   -4.085416
Ag   -0.000000  -16.341663    0.000000
Ag   -0.000000  -16.341663    4.085416
Ag   -0.000000  -16.341663    8.170832
Ag   -0.000000  -16.341663   12.256248
Ag    0.000000  -16.341663   16.341663
Ag   -0.000000  -12.256248  -20.427079
Ag   -0.000000  -12.256248  -16.341663
Ag   -0.000000  -12.256248  -12.256248
Ag   -0.000000  -12.256248   -8.170832
Ag   -0.000000  -12.256248   -4.085416
Ag   -0.000000  -12.256248    0.000000
Ag   -0.000000  -12.256248    4.085416
Ag   -0.000000  -12.256248    8.170832
Ag    0.000000  -12.256248   12.256248
Ag    0.000000  -12.256248   16.341663
Ag    0.000000  -12.256248   20.427079
Ag   -0.000000   -8.170832  -20.427079
Ag   -0.000000   -8.170832  -16.341663
Ag   -0.000000   -8.170832  -12.256248
Ag   -0.000000   -8.170832   -8.170832
Ag   -0.000000   -8.170832   -4.085416
Ag   -0.000000   -8.170832    0.000000
Ag   -0.000000   -8.170832    4.085416
Ag    0.000000   -8.170832    8.170832
Ag    0.000000   -8.170832   12.256248
Ag    0.000000   -8.170832   16.341663
Ag    0.000000   -8.170832   20.427079
Ag   -0.000000   -4.085416  -20.427079
Ag   -0.000000   -4.085416  -16.341663
Ag   -0.000000   -4.085416  -12.256248
Ag   -0.000000   -4.085416   -8.170832
Ag   -0.000000   -4.085416   -4.085416
Ag   -0.000000   -4.085416    0.000000
Ag    0.000000   -4.085416    4.085416
Ag    0.000000   -4.085416    8.170832
Ag    0.000000   -4.085416   12.256248
Ag    0.000000   -4.085416   16.341663
Ag    0.000000   -4.085416   20.427079
Ag   -0.000000   -0.000000  -20.427079
Ag   -0.000000   -0.000000  -16.341663
Ag   -0.000000   -0.000000  -12.256248
Ag   -0.000000   -0.000000   -8.170832
Ag   -0.000000   -0.000000   -4.085416
Ag    0.000000    0.000000    0.000000
Ag    0.000000    0.000000    4.085416
Ag    0.000000    0.000000    8.170832
Ag    0.000000    0.000000   12.256248
Ag    0.000000    0.000000   16.341663
Ag    0.000000    0.000000   20.427079
Ag   -0.000000    4.085416  -20.427079
Ag   -0.000000    4.085416  -16.341663
Ag   -0.000000    4.085416  -12.256248
Ag   -0.000000    4.085416   -8.170832
Ag    0.000000    4.085416   -4.085416
Ag    0.000000    4.085416    0.000000
Ag    0.000000    4.085416    4.085416
Ag    0.000000    4.085416    8.170832
Ag    0.000000    4.085416   12.256248
Ag    0.000000    4.085416   16.341663
Ag    0.000000    4.085416   20.427079
Ag   -0.000000    8.170832  -20.427079
Ag   -0.000000    8.170832  -16.341663
Ag   -0.000000    8.170832  -12.256248
Ag    0.000000    8.170832   -8.170832
Ag    0.000000    8.170832   -4.085416
Ag    0.000000    8.170832    0.000000
Ag    0.000000    8.170832    4.085416
Ag    0.000000    8.170832    8.170832
Ag    0.000000    8.170832   12.256248
Ag    0.000000    8.170832   16.341663
Ag    0.000000    8.170832   20.427079
Ag   -0.000000   12.256248  -20.427079
Ag   -0.000000   12.256248  -16.341663
Ag    0.000000   12.256248  -12.256248
Ag    0.000000   12.256248   -8.170832
Ag    0.000000   12.256248   -4.085416
Ag    0.000000   12.256248    0.000000
Ag    0.000000   12.256248    4.085416
Ag    0.000000   12.256248    8.170832
Ag    0.000000   12.256248   12.256248
Ag    0.000000   12.256248   16.341663
Ag    0.000000   12.256248   20.427079
Ag    0.000000   16.341663  -16.341663
Ag    0.000000   16.341663  -12.256248
Ag    0.000000   16.341663   -8.170832
Ag    0.000000   16.341663   -4.085416
Ag    0.000000   16.341663    0.000000
Ag    0.000000   16.341663    4.085416
Ag    0.000000   16.341663    8.170832
Ag    0.000000   16.341663   12.256248
Ag    0.000000   16.341663   16.341663
Ag    0.000000   20.427079  -12.256248
Ag    0.000000   20.427079   -8.170832
Ag    0.000000   20.427079   -4.085416
Ag    0.000000   20.427079    0.000000
Ag    0.000000   20.427079    4.085416
Ag    0.000000   20.427079    8.170832
Ag    0.000000   20.427079   12.256248
Ag    4.085416  -20.427079  -12.256248
Ag    4.085416  -20.427079   -8.170832
Ag    4.085416  -20.427079   -4.085416
Ag    4.085416  -20.427079    0.000000
Ag    4.085416  -20.427079    4.085416
Ag    4.085416  -20.427079    8.170832
Ag    4.085416  -20.427079   12.256248
Ag    4.085416  -16.341663  -16.341663
Ag    4.085416  -16.341663  -12.256248
Ag    4.085416  -16.341663   -8.170832
Ag    4.085416  -16.341663   -4.085416
Ag    4.085416  -16.341663    0.000000
Ag    4.085416  -16.341663    4.085416
Ag    4.085416  -16.341663    8.170832
Ag    4.085416  -16.341663   12.256248
Ag    4.085416  -16.341663   16.341663
Ag    4.085416  -12.256248  -20.427079
Ag    4.085416  -12.256248  -16.341663
Ag    4.085416  -12.256248  -12.256248
Ag    4.085416  -12.256248   -8.170832
Ag    4.085416  -12.256248   -4.085416
Ag    4.085416  -12.256248    0.000000
Ag    4.085416  -12.256248    4.085416
Ag    4.085416  -12.256248    8.170832
Ag    4.085416  -12.256248   12.256248
Ag    4.085416  -12.256248   16.341663
Ag    4.085416  -12.256248   20.427079
Ag    4.085416   -8.170832  -20.427079
Ag    4.085416   -8.170832  -16.341663
Ag    4.085416   -8.170832  -12.256248
Ag    4.085416   -8.170832   -8.170832
Ag    4.085416   -8.170832   -4.085416
Ag    4.085416   -8.170832    0.000000
Ag    4.085416   -8.170832    4.085416
Ag    4.085416   -8.170832    8.170832
Ag    4.085416   -8.170832   12.256248
Ag    4.085416   -8.170832   16.341663
Ag    4.085416   -8.170832   20.427079
Ag    4.085416   -4.085416  -20.427079
Ag    4.085416   -4.085416  -16.341663
Ag    4.085416   -4.085416  -12.256248
Ag    4.085416   -4.085416   -8.170832
Ag    4.085416   -4.085416   -4.085416
Ag    4.085416   -4.085416    0.000000
Ag    4.085416   -4.085416    4.085416
Ag    4.085416   -4.085416    8.170832
Ag    4.085416   -4.085416   12.256248
Ag    4.085416   -4.085416   16.341663
Ag    4.085416   -4.085416   20.427079
Ag    4.085416   -0.000000  -20.427079
Ag    4.085416   -0.000000  -16.341663
Ag    4.085416   -0.000000  -12.256248
Ag    4.085416   -0.000000   -8.170832
Ag    4.085416   -0.000000   -4.085416
Ag    4.085416    0.000000    0.000000
Ag    4.085416    0.000000    4.085416
Ag    4.085416    0.000000    8.170832
Ag    4.085416    0.000000   12.256248
Ag    4.085416    0.000000   16.341663
Ag    4.085416    0.000000   20.427079
Ag    4.085416    4.085416  -20.427079
Ag    4.085416    4.085416  -16.341663
Ag    4.085416    4.085416  -12.256248
Ag    4.085416    4.085416   -8.170832
Ag    4.085416    4.085416   -4.085416
Ag    4.085416    4.085416    0.000000
Ag    4.085416    4.085416    4.085416
Ag    4.085416    4.085416    8.170832
Ag    4.085416    4.085416   12.256248
Ag    4.085416    4.085416   16.341663
Ag    4.085416    4.085416   20.427079
Ag    4.085416    8.170832  -20.427079
Ag    4.085416    8.170832  -16.341663
Ag    4.085416    8.170832  -12.256248
Ag    4.085416    8.170832   -8.170832
Ag    4.085416    8.170832   -4.085416
Ag    4.085416    8.170832    0.000000
Ag    4.085416    8.170832    4.085416
Ag    4.085416    8.170832    8.170832
Ag    4.085416    8.170832   12.256248
Ag    4.085416    8.170832   16.341663
Ag    4.085416    8.170832   20.427079
Ag    4.085416   12.256248  -20.427079
Ag    4.085416   12.256248  -16.341663
Ag    4.085416   12.256248  -12.256248
Ag    4.085416   12.256248   -8.170832
Ag    4.085416   12.256248   -4.085416
Ag    4.085416   12.256248    0.000000
Ag    4.085416   12.256248    4.085416
Ag    4.085416   12.256248    8.170832
Ag    4.085416   12.256248   12.256248
Ag    4.085416   12.256248   16.341663
Ag    4.085416   12.256248   20.427079
Ag    4.085416   16.341663  -16.341663
Ag    4.085416   16.341663  -12.256248
Ag    4.085416   16.341663   -8.170832
Ag    4.085416   16.341663   -4.085416
Ag    4.085416   16.341663    0.000000
Ag    4.085416   16.341663    4.085416
Ag    4.085416   16.341663    8.170832
Ag    4.085416   16.341663   12.256248
Ag    4.085416   16.341663   16.341663
Ag    4.085416   20.427079  -12.256248
Ag    4.085416   20.427079   -8.170832
Ag    4.085416   20.427079   -4.085416
Ag    4.085416   20.427079    0.000000
Ag    4.085416   20.427079    4.085416
Ag    4.085416   20.427079    8.170832
Ag    4.085416   20.427079   12.256248
Ag    8.170832  -20.427079  -12.256248
Ag    8.170832  -20.427079   -8.170832
Ag    8.170832  -20.427079   -4.085416
Ag    8.170832  -20.427079    0.000000
Ag    8.170832  -20.427079    4.085416
Ag    8.170832  -20.427079    8.170832
Ag    8.170832  -20.427079   12.256248
Ag    8.170832  -16.341663  -16.341663
Ag    8.170832  -16.341663  -12.256248
Ag    8.170832  -16.341663   -8.170832
Ag    8.170832  -16.341663   -4.085416
Ag    8.170832  -16.341663    0.000000
Ag    8.170832  -16.341663    4.085416
Ag    8.170832  -16.341663    8.170832
Ag    8.170832  -16.341663   12.256248
Ag    8.170832  -16.341663   16.341663
Ag    8.170832  -12.256248  -20.427079
Ag    8.170832  -12.256248  -16.341663
Ag    8.170832  -12.256248  -12.256248
Ag    8.170832  -12.256248   -8.170832
Ag    8.170832  -12.256248   -4.085416
Ag    8.170832  -12.256248    0.000000
Ag    8.170832  -12.256248    4.085416
Ag    8.170832  -12.256248    8.170832
Ag    8.170832  -12.256248   12.256248
Ag    8.170832  -12.256248   16.341663
Ag    8.170832  -12.256248   20.427079
Ag    8.170832   -8.170832  -20.427079
Ag    8.170832   -8.170832  -16.341663
Ag    8.170832   -8.170832  -12.256248
Ag    8.170832   -8.170832   -8.170832
Ag    8.170832   -8.170832   -4.085416
Ag    8.170832   -8.170832    0.000000
Ag    8.170832   -8.170832    4.085416
Ag    8.170832   -8.170832    8.170832
Ag    8.170832   -8.170832   12.256248
Ag    8.170832   -8.170832   16.341663
Ag    8.170832   -8.170832   20.427079
Ag    8.170832   -4.085416  -20.427079
Ag    8.170832   -4.085416  -16.341663
Ag    8.170832   -4.085416  -12.256248
Ag    8.170832   -4.085416   -8.170832
Ag    8.170832   -4.085416   -4.085416
Ag    8.170832   -4.085416    0.000000
Ag    8.170832   -4.085416    4.085416
Ag    8.170832   -4.085416    8.170832
Ag    8.170832   -4.085416   12.256248
Ag    8.170832   -4.085416   16.341663
Ag    8.170832   -4.085416   20.427079
Ag    8.170832   -0.000000  -20.427079
Ag    8.170832   -0.000000  -16.341663
Ag    8.170832   -0.000000  -12.256248
Ag    8.170832   -0.000000   -8.170832
Ag    8.170832   -0.000000   -4.085416
Ag    8.170832    0.000000    0.000000
Ag    8.170832    0.000000    4.085416
Ag    8.170832    0.000000    8.170832
Ag    8.170832    0.000000   12.256248
Ag    8.170832    0.000000   16.341663
Ag    8.170832    0.000000   20.427079
Ag    8.170832    4.085416  -20.427079
Ag    8.170832    4.085416  -16.341663
Ag    8.170832    4.085416  -12.256248
Ag    8.170832    4.085416   -8.170832
Ag    8.170832    4.085416   -4.085416
Ag    8.170832    4.085416    0.000000
Ag    8.170832    4.085416    4.085416
Ag    8.170832    4.085416    8.170832
Ag    8.170832    4.085416   12.256248
Ag    8.170832    4.085416   16.341663
Ag    8.170832    4.085416   20.427079
Ag    8.170832    8.170832  -20.427079
Ag    8.170832    8.170832  -16.341663
Ag    8.170832    8.170832  -12.256248
Ag    8.170832    8.170832   -8.170832
Ag    8.170832    8.170832   -4.085416
Ag    8.170832    8.170832    0.000000
Ag    8.170832    8.170832    4.085416
Ag    8.170832    8.170832    8.170832
Ag    8.170832    8.170832   12.256248
Ag    8.170832    8.170832   16.341663
Ag    8.170832    8.170832   20.427079
Ag    8.170832   12.256248  -20.427079
Ag    8.170832   12.256248  -16.341663
Ag    8.170832   12.256248  -12.256248
Ag    8.170832   12.256248   -8.170832
Ag    8.170832   12.256248   -4.085416
Ag    8.170832   12.256248    0.000000
Ag    8.170832   12.256248    4.085416
Ag    8.170832   12.256248    8.170832
Ag    8.170832   12.256248   12.256248
Ag    8.170832   12.256248   16.341663
Ag    8.170832   12.256248   20.427079
Ag    8.170832   16.341663  -16.341663
Ag    8.170832   16.341663  -12.256248
Ag    8.170832   16.341663   -8.170832
Ag    8.170832   16.341663   -4.085416
Ag    8.170832   16.341663    0.000000
Ag    8.170832   16.341663    4.085416
Ag    8.170832   16.341663    8.170832
Ag    8.170832   16.341663   12.256248
Ag    8.170832   16.341663   16.341663
Ag    8.170832   20.427079  -12.256248
Ag    8.170832   20.427079   -8.170832
Ag    8.170832   20.427079   -4.085416
Ag    8.170832   20.427079    0.000000
Ag    8.170832   20.427079    4.085416
Ag    8.170832   20.427079    8.170832
Ag    8.170832   20.427079   12.256248
Ag   12.256248  -20.427079  -12.256248
Ag   12.256248  -20.427079   -8.170832
Ag   12.256248  -20.427079   -4.085416
Ag   12.256248  -20.427079    0.000000
Ag   12.256248  -20.427079    4.085416
Ag   12.256248  -20.427079    8.170832
Ag   12.256248  -20.427079   12.256248
Ag   12.256248  -16.341663  -16.341663
Ag   12.256248  -16.341663  -12.256248
Ag   12.256248  -16.341663   -8.170832
Ag   12.256248  -16.341663   -4.085416
Ag   12.256248  -16.341663    0.000000
Ag   12.256248  -16.341663    4.085416
Ag   12.256248  -16.341663    8.170832
Ag   12.256248  -16.341663   12.256248
Ag   12.256248  -16.341663   16.341663
Ag   12.256248  -12.256248  -20.427079
Ag   12.256248  -12.256248  -16.341663
Ag   12.256248  -12.256248  -12.256248
Ag   12.256248  -12.256248   -8.170832
Ag   12.256248  -12.256248   -4.085416
Ag   12.256248  -12.256248    0.000000
Ag   12.256248  -12.256248    4.085416
Ag   12.256248  -12.256248    8.170832
Ag   12.256248  -12.256248   12.256248
Ag   12.256248  -12.256248   16.341663
Ag   12.256248  -12.256248   20.427079
Ag   12.256248   -8.170832  -20.427079
Ag   12.256248   -8.170832  -16.341663
Ag   12.256248   -8.170832  -12.256248
Ag   12.256248   -8.170832   -8.170832
Ag   12.256248   -8.170832   -4.085416
Ag   12.256248   -8.170832    0.000000
Ag   12.256248   -8.170832    4.085416
Ag   12.256248   -8.170832    8.170832
Ag   12.256248   -8.170832   12.256248
Ag   12.256248   -8.170832   16.341663
Ag   12.256248   -8.170832   20.427079
Ag   12.256248   -4.085416  -20.427079
Ag   12.256248   -4.085416  -16.341663
Ag   12.256248   -4.085416  -12.256248
Ag   12.256248   -4.085416   -8.170832
Ag   12.256248   -4.085416   -4.085416
Ag   12.256248   -4.085416    0.000000
Ag   12.256248   -4.085416    4.085416
Ag   12.256248   -4.085416    8.170832
Ag   12.256248   -4.085416   12.256248
Ag   12.256248   -4.085416   16.341663
Ag   12.256248   -4.085416   20.427079
Ag   12.256248   -0.000000  -20.427079
Ag   12.256248   -0.000000  -16.341663
Ag   12.256248   -0.000000  -12.256248
Ag   12.256248   -0.000000   -8.170832
Ag   12.256248   -0.000000   -4.085416
Ag   12.256248    0.000000    0.000000
Ag   12.256248    0.000000    4.085416
Ag   12.256248    0.000000    8.170832
Ag   12.256248    0.000000   12.256248
Ag   12.256248    0.000000   16.341663
Ag   12.256248    0.000000   20.427079
Ag   12.256248    4.085416  -20.427079
Ag   12.256248    4.085416  -16.341663
Ag   12.256248    4.085416  -12.256248
Ag   12.256248    4.085416   -8.170832
Ag   12.256248    4.085416   -4.085416
Ag   12.256248    4.085416    0.000000
Ag   12.256248    4.085416    4.085416
Ag   12.256248    4.085416    8.170832
Ag   12.256248    4.085416   12.256248
Ag   12.256248    4.085416   16.341663
Ag   12.256248    4.085416   20.427079
Ag   12.256248    8.170832  -20.427079
Ag   12.256248    8.170832  -16.341663
Ag   12.256248    8.170832  -12.256248
Ag   12.256248    8.170832   -8.170832
Ag   12.256248    8.170832   -4.085416
Ag   12.256248    8.170832    0.000000
Ag   12.256248    8.170832    4.085416
Ag   12.256248    8.170832    8.170832
Ag   12.256248    8.170832   12.256248
Ag   12.256248    8.170832   16.341663
Ag   12.256248    8.170832   20.427079
Ag   12.256248   12.256248  -20.427079
Ag   12.256248   12.256248  -16.341663
Ag   12.256248   12.256248  -12.256248
Ag   12.256248   12.256248   -8.170832
Ag   12.256248   12.256248   -4.085416
Ag   12.256248   12.256248    0.000000
Ag   12.256248   12.256248    4.085416
Ag   12.256248   12.256248    8.170832
Ag   12.256248   12.256248   12.256248
Ag   12.256248   12.256248   16.341663
Ag   12.256248   12.256248   20.427079
Ag   12.256248   16.341663  -16.341663
Ag   12.256248   16.341663  -12.256248
Ag   12.256248   16.341663   -8.170832
Ag   12.256248   16.341663   -4.085416
Ag   12.256248   16.341663    0.000000
Ag   12.256248   16.341663    4.085416
Ag   12.256248   16.341663    8.170832
Ag   12.256248   16.341663   12.256248
Ag   12.256248   16.341663   16.341663
Ag   12.256248   20.427079  -12.256248
Ag   12.256248   20.427079   -8.170832
Ag   12.256248   20.427079   -4.085416
Ag   12.256248   20.427079    0.000000
Ag   12.256248   20.427079    4.085416
Ag   12.256248   20.427079    8.170832
Ag   12.256248   20.427079   12.256248
Ag   16.341663  -16.341663  -16.341663
Ag   16.341663  -16.341663  -12.256248
Ag   16.341663  -16.341663   -8.170832
Ag   16.341663  -16.341663   -4.085416
Ag   16.341663  -16.341663    0.000000
Ag   16.341663  -16.341663    4.085416
Ag   16.341663  -16.341663    8.170832
Ag   16.341663  -16.341663   12.256248
Ag   16.341663  -16.341663   16.341663
Ag   16.341663  -12.256248  -16.341663
Ag   16.341663  -12.256248  -12.256248
Ag   16.341663  -12.256248   -8.170832
Ag   16.341663  -12.256248   -4.085416
Ag   16.341663  -12.256248    0.000000
Ag   16.341663  -12.256248    4.085416
Ag   16.341663  -12.256248    8.170832
Ag   16.341663  -12.256248   12.256248
Ag   16.341663  -12.256248   16.341663
Ag   16.341663   -8.170832  -16.341663
Ag   16.341663   -8.170832  -12.256248
Ag   16.341663   -8.170832   -8.170832
Ag   16.341663   -8.170832   -4.085416
Ag   16.341663   -8.170832    0.000000
Ag   16.341663   -8.170832    4.085416
Ag   16.341663   -8.170832    8.170832
Ag   16.341663   -8.170832   12.256248
Ag   16.341663   -8.170832   16.341663
Ag   16.341663   -4.085416  -16.341663
Ag   16.341663   -4.085416  -12.256248
Ag   16.341663   -4.085416   -8.170832
Ag   16.341663   -4.085416   -4.085416
Ag   16.341663   -4.085416    0.000000
Ag   16.341663   -4.085416    4.085416
Ag   16.341663   -4.085416    8.170832
Ag   16.341663   -4.085416   12.256248
Ag   16.341663   -4.085416   16.341663
Ag   16.341663   -0.000000  -16.341663
Ag   16.341663   -0.000000  -12.256248
Ag   16.341663   -0.000000   -8.170832
Ag   16.341663   -0.000000   -4.085416
Ag   16.341663    0.000000    0.000000
Ag   16.341663    0.000000    4.085416
Ag   16.341663    0.000000    8.170832
Ag   16.341663    0.000000   12.256248
Ag   16.341663    0.000000   16.341663
Ag   16.341663    4.085416  -16.341663
Ag   16.341663    4.085416  -12.256248
Ag   16.341663    4.085416   -8.170832
Ag   16.341663    4.085416   -4.085416
Ag   16.341663    4.085416    0.000000
Ag   16.341663    4.085416    4.085416
Ag   16.341663    4.085416    8.170832
Ag   16.341663    4.085416   12.256248
Ag   16.341663    4.085416   16.341663
Ag   16.341663    8.170832  -16.341663
Ag   16.341663    8.170832  -12.256248
Ag   16.341663    8.170832   -8.170832
Ag   16.341663    8.170832   -4.085416
Ag   16.341663    8.170832    0.000000
Ag   16.341663    8.170832    4.085416
Ag   16.341663    8.170832    8.170832
Ag   16.341663    8.170832   12.256248
Ag   16.341663    8.170832   16.341663
Ag   16.341663   12.256248  -16.341663
Ag   16.341663   12.256248  -12.256248
Ag   16.341663   12.256248   -8.170832
Ag   16.341663   12.256248   -4.085416
Ag   16.341663   12.256248    0.000000
Ag   16.341663   12.256248    4.085416
Ag   16.341663   12.256248    8.170832
Ag   16.341663   12.256248   12.256248
Ag   16.341663   12.256248   16.341663
Ag   16.341663   16.341663  -16.341663
Ag   16.341663   16.341663  -12.256248
Ag   16.341663   16.341663   -8.170832
Ag   16.341663   16.341663   -4.085416
Ag   16.341663   16.341663    0.000000
Ag   16.341663   16.341663    4.085416
Ag   16.341663   16.341663    8.170832
Ag   16.341663   16.341663   12.256248
Ag   16.341663   16.341663   16.341663
Ag   20.427079  -12.256248  -12.256248
Ag   20.427079  -12.256248   -8.170832
Ag   20.427079  -12.256248   -4.085416
Ag   20.427079  -12.256248    0.000000
Ag   20.427079  -12.256248    4.085416
Ag   20.427079  -12.256248    8.170832
Ag   20.427079  -12.256248   12.256248
Ag   20.427079   -8.170832  -12.256248
Ag   20.427079   -8.170832   -8.170832
Ag   20.427079   -8.170832   -4.085416
Ag   20.427079   -8.170832    0.000000
Ag   20.427079   -8.170832    4.085416
Ag   20.427079   -8.170832    8.170832
Ag   20.427079   -8.170832   12.256248
Ag   20.427079   -4.085416  -12.256248
Ag   20.427079   -4.085416   -8.170832
Ag   20.427079   -4.085416   -4.085416
Ag   20.427079   -4.085416    0.000000
Ag   20.427079   -4.085416    4.085416
Ag   20.427079   -4.085416    8.170832
Ag   20.427079   -4.085416   12.256248
Ag   20.427079   -0.000000  -12.256248
Ag   20.427079   -0.000000   -8.170832
Ag   20.427079   -0.000000   -4.085416
Ag   20.427079    0.000000    0.000000
Ag   20.427079    0.000000    4.085416
Ag   20.427079    0.000000    8.170832
Ag   20.427079    0.000000   12.256248
Ag   20.427079    4.085416  -12.256248
Ag   20.427079    4.085416   -8.170832
Ag   20.427079    4.085416   -4.085416
Ag   20.427079    4.085416    0.000000
Ag   20.427079    4.085416    4.085416
Ag   20.427079    4.085416    8.170832
Ag   20.427079    4.085416   12.256248
Ag   20.427079    8.170832  -12.256248
Ag   20.427079    8.170832   -8.170832
Ag   20.427079    8.170832   -4.085416
Ag   20.427079    8.170832    0.000000
Ag   20.427079    8.170832    4.085416
Ag   20.427079    8.170832    8.170832
Ag   20.427079    8.170832   12.256248
Ag   20.427079   12.256248  -12.256248
Ag   20.427079   12.256248   -8.170832
Ag   20.427079   12.256248   -4.085416
Ag   20.427079   12.256248    0.000000
Ag   20.427079   12.256248    4.085416
Ag   20.427079   12.256248    8.170832
Ag   20.427079   12.256248   12.256248
Ag  -20.427079  -10.213540  -10.213540
Ag  -20.427079  -10.213540   -6.128124
Ag  -20.427079  -10.213540   -2.042708
Ag  -20.427079  -10.213540    2.042708
Ag  -20.427079  -10.213540    6.128124
Ag  -20.427079  -10.213540   10.213540
Ag  -20.427079   -6.128124  -10.213540
Ag  -20.427079   -6.128124   -6.128124
Ag  -20.427079   -6.128124   -2.042708
Ag  -20.427079   -6.128124    2.042708
Ag  -20.427079   -6.128124    6.128124
Ag  -20.427079   -6.128124   10.213540
Ag  -20.427079   -2.042708  -10.213540
Ag  -20.427079   -2.042708   -6.128124
Ag  -20.427079   -2.042708   -2.042708
Ag  -20.427079   -2.042708    2.042708
Ag  -20.427079   -2.042708    6.128124
Ag  -20.427079   -2.042708   10.213540
Ag  -20.427079    2.042708  -10.213540
Ag  -20.427079    2.042708   -6.128124
Ag  -20.427079    2.042708   -2.042708
Ag  -20.427079    2.042708    2.042708
Ag  -20.427079    2.042708    6.128124
Ag  -20.427079    2.042708   10.213540
Ag  -20.427079    6.128124  -10.213540
Ag  -20.427079    6.128124   -6.128124
Ag  -20.427079    6.128124   -2.042708
Ag  -20.427079    6.128124    2.042708
Ag  -20.427079    6.128124    6.128124
Ag  -20.427079    6.128124   10.213540
Ag  -20.427079   10.213540  -10.213540
Ag  -20.427079   10.213540   -6.128124
Ag  -20.427079   10.213540   -2.042708
Ag  -20.427079   10.213540    2.042708
Ag  -20.427079   10.213540    6.128124
Ag  -20.427079   10.213540   10.213540
Ag  -16.341663  -14.298955  -14.298955
Ag  -16.341663  -14.298955  -10.213540
Ag  -16.341663  -14.298955   -6.128124
Ag  -16.341663  -14.298955   -2.042708
Ag  -16.341663  -14.298955    2.042708
Ag  -16.341663  -14.298955    6.128124
Ag  -16.341663  -14.298955   10.213540
Ag  -16.341663  -14.298955   14.298955
Ag  -16.341663  -10.213540  -14.298955
Ag  -16.341663  -10.213540  -10.213540
Ag  -16.341663  -10.213540   -6.128124
Ag  -16.341663  -10.213540   -2.042708
Ag  -16.341663  -10.213540    2.042708
Ag  -16.341663  -10.213540    6.128124
Ag  -16.341663  -10.213540   10.213540
Ag  -16.341663  -10.213540   14.298955
Ag  -16.341663   -6.128124  -14.298955
Ag  -16.341663   -6.128124  -10.213540
Ag  -16.341663   -6.128124   -6.128124
Ag  -16.341663   -6.128124   -2.042708
Ag  -16.341663   -6.128124    2.042708
Ag  -16.341663   -6.128124    6.128124
Ag  -16.341663   -6.128124   10.213540
Ag  -16.341663   -6.128124   14.298955
Ag  -16.341663   -2.042708  -14.298955
Ag  -16.341663   -2.042708  -10.213540
Ag  -16.341663   -2.042708   -6.128124
Ag  -16.341663   -2.042708   -2.042708
Ag  -16.341663   -2.042708    2.042708
Ag  -16.341663   -2.042708    6.128124
Ag  -16.341663   -2.042708   10.213540
Ag  -16.341663   -2.042708   14.298955
Ag  -16.341663    2.042708  -14.298955
Ag  -16.341663    2.042708  -10.213540
Ag  -16.341663    2.042708   -6.128124
Ag  -16.341663    2.042708   -2.042708
Ag  -16.341663    2.042708    2.042708
Ag  -16.341663    2.042708    6.128124
Ag  -16.341663    2.042708   10.213540
Ag  -16.341663    2.042708   14.298955
Ag  -16.341663    6.128124  -14.298955
Ag  -16.341663    6.128124  -10.213540
Ag  -16.341663    6.128124   -6.128124
Ag  -16.341663    6.128124   -2.042708
Ag  -16.341663    6.128124    2.042708
Ag  -16.341663    6.128124    6.128124
Ag  -16.341663    6.128124   10.213540
Ag  -16.341663    6.128124   14.298955
Ag  -16.341663   10.213540  -14.298955
Ag  -16.341663   10.213540  -10.213540
Ag  -16.341663   10.213540   -6.128124
Ag  -16.341663   10.213540   -2.042708
Ag  -16.341663   10.213540    2.042708
Ag  -16.341663   10.213540    6.128124
Ag  -16.341663   10.213540   10.213540
Ag  -16.341663   10.213540   14.298955
Ag  -16.341663   14.298955  -14.298955
Ag  -16.341663   14.298955  -10.213540
Ag  -16.341663   14.298955   -6.128124
Ag  -16.341663   14.298955   -2.042708
Ag  -16.341663   14.298955    2.042708
Ag  -16.341663   14.298955    6.128124
Ag  -16.341663   14.298955   10.213540
Ag  -16.341663   14.298955   14.298955
Ag  -12.256248  -18.384371  -14.298955
Ag  -12.256248  -18.384371  -10.213540
Ag  -12.256248  -18.384371   -6.128124
Ag  -12.256248  -18.384371   -2.042708
Ag  -12.256248  -18.384371    2.042708
Ag  -12.256248  -18.384371    6.128124
Ag  -12.256248  -18.384371   10.213540
Ag  -12.256248  -18.384371   14.298955
Ag  -12.256248  -14.298955  -18.384371
Ag  -12.256248  -14.298955  -14.298955
Ag  -12.256248  -14.298955  -10.213540
Ag  -12.256248  -14.298955   -6.128124
Ag  -12.256248  -14.298955   -2.042708
Ag  -12.256248  -14.298955    2.042708
Ag  -12.256248  -14.298955    6.128124
Ag  -12.256248  -14.298955   10.213540
Ag  -12.256248  -14.298955   14.298955
Ag  -12.256248  -14.298955   18.384371
Ag  -12.256248  -10.213540  -18.384371
Ag  -12.256248  -10.213540  -14.298955
Ag  -12.256248  -10.213540  -10.213540
Ag  -12.256248  -10.213540   -6.128124
Ag  -12.256248  -10.213540   -2.042708
Ag  -12.256248  -10.213540    2.042708
Ag  -12.256248  -10.213540    6.128124
Ag  -12.256248  -10.213540   10.213540
Ag  -12.256248  -10.213540   14.298955
Ag  -12.256248  -10.213540   18.384371
Ag  -12.256248   -6.128124  -18.384371
Ag  -12.256248   -6.128124  -14.298955
Ag  -12.256248   -6.128124  -10.213540
Ag  -12.256248   -6.128124   -6.128124
Ag  -12.256248   -6.128124   -2.042708
Ag  -12.256248   -6.128124    2.042708
Ag  -12.256248   -6.128124    6.128124
Ag  -12.256248   -6.128124   10.213540
Ag  -12.256248   -6.128124   14.298955
Ag  -12.256248   -6.128124   18.384371
Ag  -12.256248   -2.042708  -18.384371
Ag  -12.256248   -2.042708  -14.298955
Ag  -12.256248   -2.042708  -10.213540
Ag  -12.256248   -2.042708   -6.128124
Ag  -12.256248   -2.042708   -2.042708
Ag  -12.256248   -2.042708    2.042708
Ag  -12.256248   -2.042708    6.128124
Ag  -12.256248   -2.042708   10.213540
Ag  -12.256248   -2.042708   14.298955
Ag  -12.256248   -2.042708   18.384371
Ag  -12.256248    2.042708  -18.384371
Ag  -12.256248    2.042708  -14.298955
Ag  -12.256248    2.042708  -10.213540
Ag  -12.256248    2.042708   -6.128124
Ag  -12.256248    2.042708   -2.042708
Ag  -12.256248    2.042708    2.042708
Ag  -12.256248    2.042708    6.128124
Ag  -12.256248    2.042708   10.213540
Ag  -12.256248    2.042708   14.298955
Ag  -12.256248    2.042708   18.384371
Ag  -12.256248    6.128124  -18.384371
Ag  -12.256248    6.128124  -14.298955
Ag  -12.256248    6.128124  -10.213540
Ag  -12.256248    6.128124   -6.128124
Ag  -12.256248    6.128124   -2.042708
Ag  -12.256248    6.128124    2.042708
Ag  -12.256248    6.128124    6.128124
Ag  -12.256248    6.128124   10.213540
Ag  -12.256248    6.128124   14.298955
Ag  -12.256248    6.128124   18.384371
Ag  -12.256248   10.213540  -18.384371
Ag  -12.256248   10.213540  -14.298955
Ag  -12.256248   10.213540  -10.213540
Ag  -12.256248   10.213540   -6.128124
Ag  -12.256248   10.213540   -2.042708
Ag  -12.256248   10.213540    2.042708
Ag  -12.256248   10.213540    6.128124
Ag  -12.256248   10.213540   10.213540
Ag  -12.256248   10.213540   14.298955
Ag  -12.256248   10.213540   18.384371
Ag  -12.256248   14.298955  -18.384371
Ag  -12.256248   14.298955  -14.298955
Ag  -12.256248   14.298955  -10.213540
Ag  -12.256248   14.298955   -6.128124
Ag  -12.256248   14.298955   -2.042708
Ag  -12.256248   14.298955    2.042708
Ag  -12.256248   14.298955    6.128124
Ag  -12.256248   14.298955   10.213540
Ag  -12.256248   14.298955   14.298955
Ag  -12.256248   14.298955   18.384371
Ag  -12.256248   18.384371  -14.298955
Ag  -12.256248   18.384371  -10.213540
Ag  -12.256248   18.384371   -6.128124
Ag  -12.256248   18.384371   -2.042708
Ag  -12.256248   18.384371    2.042708
Ag  -12.256248   18.384371    6.128124
Ag  -12.256248   18.384371   10.213540
Ag  -12.256248   18.384371   14.298955
Ag   -8.170832  -22.469787  -10.213540
Ag   -8.170832  -22.469787   -6.128124
Ag   -8.170832  -22.469787   -2.042708
Ag   -8.170832  -22.469787    2.042708
Ag   -8.170832  -22.469787    6.128124
Ag   -8.170832  -22.469787   10.213540
Ag   -8.170832  -18.384371  -14.298955
Ag   -8.170832  -18.384371  -10.213540
Ag   -8.170832  -18.384371   -6.128124
Ag   -8.170832  -18.384371   -2.042708
Ag   -8.170832  -18.384371    2.042708
Ag   -8.170832  -18.384371    6.128124
Ag   -8.170832  -18.384371   10.213540
Ag   -8.170832  -18.384371   14.298955
Ag   -8.170832  -14.298955  -18.384371
Ag   -8.170832  -14.298955  -14.298955
Ag   -8.170832  -14.298955  -10.213540
Ag   -8.170832  -14.298955   -6.128124
Ag   -8.170832  -14.298955   -2.042708
Ag   -8.170832  -14.298955    2.042708
Ag   -8.170832  -14.298955    6.128124
Ag   -8.170832  -14.298955   10.213540
Ag   -8.170832  -14.298955   14.298955
Ag   -8.170832  -14.298955   18.384371
Ag   -8.170832  -10.213540  -22.469787
Ag   -8.170832  -10.213540  -18.384371
Ag   -8.170832  -10.213540  -14.298955
Ag   -8.170832  -10.213540  -10.213540
Ag   -8.170832  -10.213540   -6.128124
Ag   -8.170832  -10.213540   -2.042708
Ag   -8.170832  -10.213540    2.042708
Ag   -8.170832  -10.213540    6.128124
Ag   -8.170832  -10.213540   10.213540
Ag   -8.170832  -10.213540   14.298955
Ag   -8.170832  -10.213540   18.384371
Ag   -8.170832  -10.213540   22.469787
Ag   -8.170832   -6.128124  -22.469787
Ag   -8.170832   -6.128124  -18.384371
Ag   -8.170832   -6.128124  -14.298955
Ag   -8.170832   -6.128124  -10.213540
Ag   -8.170832   -6.128124   -6.128124
Ag   -8.170832   -6.128124   -2.042708
Ag   -8.170832   -6.128124    2.042708
Ag   -8.170832   -6.128124    6.128124
Ag   -8.170832   -6.128124   10.213540
Ag   -8.170832   -6.128124   14.298955
Ag   -8.170832   -6.128124   18.384371
Ag   -8.170832   -6.128124   22.469787
Ag   -8.170832   -2.042708  -22.469787
Ag   -8.170832   -2.042708  -18.384371
Ag   -8.170832   -2.042708  -14.298955
Ag   -8.170832   -2.042708  -10.213540
Ag   -8.170832   -2.042708   -6.128124
Ag   -8.170832   -2.042708   -2.042708
Ag   -8.170832   -2.042708    2.042708
Ag   -8.170832   -2.042708    6.128124
Ag   -8.170832   -2.042708   10.213540
Ag   -8.170832   -2.042708   14.298955
Ag   -8.170832   -2.042708   18.384371
Ag   -8.170832   -2.042708   22.469787
Ag   -8.170832    2.042708  -22.469787
Ag   -8.170832    2.042708  -18.384371
Ag   -8.170832    2.042708  -14.298955
Ag   -8.170832    2.042708  -10.213540
Ag   -8.170832    2.042708   -6.128124
Ag   -8.170832    2.042708   -2.042708
Ag   -8.170832    2.042708    2.042708
Ag   -8.170832    2.042708    6.128124
Ag   -8.170832    2.042708   10.213540
Ag   -8.170832    2.042708   14.298955
Ag   -8.170832    2.042708   18.384371
Ag   -8.170832    2.042708   22.469787
Ag   -8.170832    6.128124  -22.469787
Ag   -8.170832    6.128124  -18.384371
Ag   -8.170832    6.128124  -14.298955
Ag   -8.170832    6.128124  -10.213540
Ag   -8.170832    6.128124   -6.128124
Ag   -8.170832    6.128124   -2.042708
Ag   -8.170832    6.128124    2.042708
Ag   -8.170832    6.128124    6.128124
Ag   -8.170832    6.128124   10.213540
Ag   -8.170832    6.128124   14.298955
Ag   -8.170832    6.128124   18.384371
Ag   -8.170832    6.128124   22.469787
Ag   -8.170832   10.213540  -22.469787
Ag   -8.170832   10.213540  -18.384371
Ag   -8.170832   10.213540  -14.298955
Ag   -8.170832   10.213540  -10.213540
Ag   -8.170832   10.213540   -6.128124
Ag   -8.170832   10.213540   -2.042708
Ag   -8.170832   10.213540    2.042708
Ag   -8.170832   10.213540    6.128124
Ag   -8.170832   10.213540   10.213540
Ag   -8.170832   10.213540   14.298955
Ag   -8.170832   10.213540   18.384371
Ag   -8.170832   10.213540   22.469787
Ag   -8.170832   14.298955  -18.384371
Ag   -8.170832   14.298955  -14.298955
Ag   -8.170832   14.298955  -10.213540
Ag   -8.170832   14.298955   -6.128124
Ag   -8.170832   14.298955   -2.042708
Ag   -8.170832   14.298955    2.042708
Ag   -8.170832   14.298955    6.128124
Ag   -8.170832   14.298955   10.213540
Ag   -8.170832   14.298955   14.298955
Ag   -8.170832   14.298955   18.384371
Ag   -8.170832   18.384371  -14.298955
Ag   -8.170832   18.384371  -10.213540
Ag   -8.170832   18.384371   -6.128124
Ag   -8.170832   18.384371   -2.042708
Ag   -8.170832   18.384371    2.042708
Ag   -8.170832   18.384371    6.128124
Ag   -8.170832   18.384371   10.213540
Ag   -8.170832   18.384371   14.298955
Ag   -8.170832   22.469787  -10.213540
Ag   -8.170832   22.469787   -6.128124
Ag   -8.170832   22.469787   -2.042708
Ag   -8.170832   22.469787    2.042708
Ag   -8.170832   22.469787    6.128124
Ag   -8.170832   22.469787   10.213540
Ag   -4.085416  -22.469787  -10.213540
Ag   -4.085416  -22.469787   -6.128124
Ag   -4.085416  -22.469787   -2.042708
Ag   -4.085416  -22.469787    2.042708
Ag   -4.085416  -22.469787    6.128124
Ag   -4.085416  -22.469787   10.213540
Ag   -4.085416  -18.384371  -14.298955
Ag   -4.085416  -18.384371  -10.213540
Ag   -4.085416  -18.384371   -6.128124
Ag   -4.085416  -18.384371   -2.042708
Ag   -4.085416  -18.384371    2.042708
Ag   -4.085416  -18.384371    6.128124
Ag   -4.085416  -18.384371   10.213540
Ag   -4.085416  -18.384371   14.298955
Ag   -4.085416  -14.298955  -18.384371
Ag   -4.085416  -14.298955  -14.298955
Ag   -4.085416  -14.298955  -10.213540
Ag   -4.085416  -14.298955   -6.128124
Ag   -4.085416  -14.298955   -2.042708
Ag   -4.085416  -14.298955    2.042708
Ag   -4.085416  -14.298955    6.128124
Ag   -4.085416  -14.298955   10.213540
Ag   -4.085416  -14.298955   14.298955
Ag   -4.085416  -14.298955   18.384371
Ag   -4.085416  -10.213540  -22.469787
Ag   -4.085416  -10.213540  -18.384371
Ag   -4.085416  -10.213540  -14.298955
Ag   -4.085416  -10.213540  -10.213540
Ag   -4.085416  -10.213540   -6.128124
Ag   -4.085416  -10.213540   -2.042708
Ag   -4.085416  -10.213540    2.042708
Ag   -4.085416  -10.213540    6.128124
Ag   -4.085416  -10.213540   10.213540
Ag   -4.085416  -10.213540   14.298955
Ag   -4.085416  -10.213540   18.384371
Ag   -4.085416  -10.213540   22.469787
Ag   -4.085416   -6.128124  -22.469787
Ag   -4.085416   -6.128124  -18.384371
Ag   -4.085416   -6.128124  -14.298955
Ag   -4.085416   -6.128124  -10.213540
Ag   -4.085416   -6.128124   -6.128124
Ag   -4.085416   -6.128124   -2.042708
Ag   -4.085416   -6.128124    2.042708
Ag   -4.085416   -6.128124    6.128124
Ag   -4.085416   -6.128124   10.213540
Ag   -4.085416   -6.128124   14.298955
Ag   -4.085416   -6.128124   18.384371
Ag   -4.085416   -6.128124   22.469787
Ag   -4.085416   -2.042708  -22.469787
Ag   -4.085416   -2.042708  -18.384371
Ag   -4.085416   -2.042708  -14.298955
Ag   -4.085416   -2.042708  -10.213540
Ag   -4.085416   -2.042708   -6.128124
Ag   -4.085416   -2.042708   -2.042708
Ag   -4.085416   -2.042708    2.042708
Ag   -4.085416   -2.042708    6.128124
Ag   -4.085416   -2.042708   10.213540
Ag   -4.085416   -2.042708   14.298955
Ag   -4.085416   -2.042708   18.384371
Ag   -4.085416   -2.042708   22.469787
Ag   -4.085416    2.042708  -22.469787
Ag   -4.085416    2.042708  -18.384371
Ag   -4.085416    2.042708  -14.298955
Ag   -4.085416    2.042708  -10.213540
Ag   -4.085416    2.042708   -6.128124
Ag   -4.085416    2.042708   -2.042708
Ag   -4.085416    2.042708    2.042708
Ag   -4.085416    2.042708    6.128124
Ag   -4.085416    2.042708   10.213540
Ag   -4.085416    2.042708   14.298955
Ag   -4.085416    2.042708   18.384371
Ag   -4.085416    2.042708   22.469787
Ag   -4.085416    6.128124  -22.469787
Ag   -4.085416    6.128124  -18.384371
Ag   -4.085416    6.128124  -14.298955
Ag   -4.085416    6.128124  -10.213540
Ag   -4.085416    6.128124   -6.128124
Ag   -4.085416    6.128124   -2.042708
Ag   -4.085416    6.128124    2.042708
Ag   -4.085416    6.128124    6.128124
Ag   -4.085416    6.128124   10.213540
Ag   -4.085416    6.128124   14.298955
Ag   -4.085416    6.128124   18.384371
Ag   -4.085416    6.128124   22.469787
Ag   -4.085416   10.213540  -22.469787
Ag   -4.085416   10.213540  -18.384371
Ag   -4.085416   10.213540  -14.298955
Ag   -4.085416   10.213540  -10.213540
Ag   -4.085416   10.213540   -6.128124
Ag   -4.085416   10.213540   -2.042708
Ag   -4.085416   10.213540    2.042708
Ag   -4.085416   10.213540    6.128124
Ag   -4.085416   10.213540   10.213540
Ag   -4.085416   10.213540   14.298955
Ag   -4.085416   10.213540   18.384371
Ag   -4.085416   10.213540   22.469787
Ag   -4.085416   14.298955  -18.384371
Ag   -4.085416   14.298955  -14.298955
Ag   -4.085416   14.298955  -10.213540
Ag   -4.085416   14.298955   -6.128124
Ag   -4.085416   14.298955   -2.042708
Ag   -4.085416   14.298955    2.042708
Ag   -4.085416   14.298955    6.128124
Ag   -4.085416   14.298955   10.213540
Ag   -4.085416   14.298955   14.298955
Ag   -4.085416   14.298955   18.384371
Ag   -4.085416   18.384371  -14.298955
Ag   -4.085416   18.384371  -10.213540
Ag   -4.085416   18.384371   -6.128124
Ag   -4.085416   18.384371   -2.042708
Ag   -4.085416   18.384371    2.042708
Ag   -4.085416   18.384371    6.128124
Ag   -4.085416   18.384371   10.213540
Ag   -4.085416   18.384371   14.298955
Ag   -4.085416   22.469787  -10.213540
Ag   -4.085416   22.469787   -6.128124
Ag   -4.085416   22.469787   -2.042708
Ag   -4.085416   22.469787    2.042708
Ag   -4.085416   22.469787    6.128124
Ag   -4.085416   22.469787   10.213540
Ag   -0.000000  -22.469787  -10.213540
Ag   -0.000000  -22.469787   -6.128124
Ag   -0.000000  -22.469787   -2.042708
Ag   -0.000000  -22.469787    2.042708
Ag   -0.000000  -22.469787    6.128124
Ag   -0.000000  -22.469787   10.213540
Ag   -0.000000  -18.384371  -14.298955
Ag   -0.000000  -18.384371  -10.213540
Ag   -0.000000  -18.384371   -6.128124
Ag   -0.000000  -18.384371   -2.042708
Ag   -0.000000  -18.384371    2.042708
Ag   -0.000000  -18.384371    6.128124
Ag   -0.000000  -18.384371   10.213540
Ag   -0.000000  -18.384371   14.298955
Ag   -0.000000  -14.298955  -18.384371
Ag   -0.000000  -14.298955  -14.298955
Ag   -0.000000  -14.298955  -10.213540
Ag   -0.000000  -14.298955   -6.128124
Ag   -0.000000  -14.298955   -2.042708
Ag   -0.000000  -14.298955    2.042708
Ag   -0.000000  -14.298955    6.128124
Ag   -0.000000  -14.298955   10.213540
Ag   -0.000000  -14.298955   14.298955
Ag    0.000000  -14.298955   18.384371
Ag   -0.000000  -10.213540  -22.469787
Ag   -0.000000  -10.213540  -18.384371
Ag   -0.000000  -10.213540  -14.298955
Ag   -0.000000  -10.213540  -10.213540
Ag   -0.000000  -10.213540   -6.128124
Ag   -0.000000  -10.213540   -2.042708
Ag   -0.000000  -10.213540    2.042708
Ag   -0.000000  -10.213540    6.128124
Ag    0.000000  -10.213540   10.213540
Ag    0.000000  -10.213540   14.298955
Ag    0.000000  -10.213540   18.384371
Ag    0.000000  -10.213540   22.469787
Ag   -0.000000   -6.128124  -22.469787
Ag   -0.000000   -6.128124  -18.384371
Ag   -0.000000   -6.128124  -14.298955
Ag   -0.000000   -6.128124  -10.213540
Ag   -0.000000   -6.128124   -6.128124
Ag   -0.000000   -6.128124   -2.042708
Ag   -0.000000   -6.128124    2.042708
Ag    0.000000   -6.128124    6.128124
Ag    0.000000   -6.128124   10.213540
Ag    0.000000   -6.128124   14.298955
Ag    0.000000   -6.128124   18.384371
Ag    0.000000   -6.128124   22.469787
Ag   -0.000000   -2.042708  -22.469787
Ag   -0.000000   -2.042708  -18.384371
Ag   -0.000000   -2.042708  -14.298955
Ag   -0.000000   -2.042708  -10.213540
Ag   -0.000000   -2.042708   -6.128124
Ag   -0.000000   -2.042708   -2.042708
Ag    0.000000   -2.042708    2.042708
Ag    0.000000   -2.042708    6.128124
Ag    0.000000   -2.042708   10.213540
Ag    0.000000   -2.042708   14.298955
Ag    0.000000   -2.042708   18.384371
Ag    0.000000   -2.042708   22.469787
Ag   -0.000000    2.042708  -22.469787
Ag   -0.000000    2.042708  -18.384371
Ag   -0.000000    2.042708  -14.298955
Ag   -0.000000    2.042708  -10.213540
Ag   -0.000000    2.042708   -6.128124
Ag    0.000000    2.042708   -2.042708
Ag    0.000000    2.042708    2.042708
Ag    0.000000    2.042708    6.128124
Ag    0.000000    2.042708   10.213540
Ag    0.000000    2.042708   14.298955
Ag    0.000000    2.042708   18.384371
Ag    0.000000    2.042708   22.469787
Ag   -0.000000    6.128124  -22.469787
Ag   -0.000000    6.128124  -18.384371
Ag   -0.000000    6.128124  -14.298955
Ag   -0.000000    6.128124  -10.213540
Ag    0.000000    6.128124   -6.128124
Ag    0.000000    6.128124   -2.042708
Ag    0.000000    6.128124    2.042708
Ag    0.000000    6.128124    6.128124
Ag    0.000000    6.128124   10.213540
Ag    0.000000    6.128124   14.298955
Ag    0.000000    6.128124   18.384371
Ag    0.000000    6.128124   22.469787
Ag   -0.000000   10.213540  -22.469787
Ag   -0.000000   10.213540  -18.384371
Ag   -0.000000   10.213540  -14.298955
Ag    0.000000   10.213540  -10.213540
Ag    0.000000   10.213540   -6.128124
Ag    0.000000   10.213540   -2.042708
Ag    0.000000   10.213540    2.042708
Ag    0.000000   10.213540    6.128124
Ag    0.000000   10.213540   10.213540
Ag    0.000000   10.213540   14.298955
Ag    0.000000   10.213540   18.384371
Ag    0.000000   10.213540   22.469787
Ag   -0.000000   14.298955  -18.384371
Ag   -0.000000   14.298955  -14.298955
Ag    0.000000   14.298955  -10.213540
Ag    0.000000   14.298955   -6.128124
Ag    0.000000   14.298955   -2.042708
Ag    0.000000   14.298955    2.042708
Ag    0.000000   14.298955    6.128124
Ag    0.000000   14.298955   10.213540
Ag    0.000000   14.298955   14.298955
Ag    0.000000   14.298955   18.384371
Ag    0.000000   18.384371  -14.298955
Ag    0.000000   18.384371  -10.213540
Ag    0.000000   18.384371   -6.128124
Ag    0.000000   18.384371   -2.042708
Ag    0.000000   18.384371    2.042708
Ag    0.000000   18.384371    6.128124
Ag    0.000000   18.384371   10.213540
Ag    0.000000   18.384371   14.298955
Ag    0.000000   22.469787  -10.213540
Ag    0.000000   22.469787   -6.128124
Ag    0.000000   22.469787   -2.042708
Ag    0.000000   22.469787    2.042708
Ag    0.000000   22.469787    6.128124
Ag    0.000000   22.469787   10.213540
Ag    4.085416  -22.469787  -10.213540
Ag    4.085416  -22.469787   -6.128124
Ag    4.085416  -22.469787   -2.042708
Ag    4.085416  -22.469787    2.042708
Ag    4.085416  -22.469787    6.128124
Ag    4.085416  -22.469787   10.213540
Ag    4.085416  -18.384371  -14.298955
Ag    4.085416  -18.384371  -10.213540
Ag    4.085416  -18.384371   -6.128124
Ag    4.085416  -18.384371   -2.042708
Ag    4.085416  -18.384371    2.042708
Ag    4.085416  -18.384371    6.128124
Ag    4.085416  -18.384371   10.213540
Ag    4.085416  -18.384371   14.298955
Ag    4.085416  -14.298955  -18.384371
Ag    4.085416  -14.298955  -14.298955
Ag    4.085416  -14.298955  -10.213540
Ag    4.085416  -14.298955   -6.128124
Ag    4.085416  -14.298955   -2.042708
Ag    4.085416  -14.298955    2.042708
Ag    4.085416  -14.298955    6.128124
Ag    4.085416  -14.298955   10.213540
Ag    4.085416  -14.298955   14.298955
Ag    4.085416  -14.298955   18.384371
Ag    4.085416  -10.213540  -22.469787
Ag    4.085416  -10.213540  -18.384371
Ag    4.085416  -10.213540  -14.298955
Ag    4.085416  -10.213540  -10.213540
Ag    4.085416  -10.213540   -6.128124
Ag    4.085416  -10.213540   -2.042708
Ag    4.085416  -10.213540    2.042708
Ag    4.085416  -10.213540    6.128124
Ag    4.085416  -10.213540   10.213540
Ag    4.085416  -10.213540   14.298955
Ag    4.085416  -10.213540   18.384371
Ag    4.085416  -10.213540   22.469787
Ag    4.085416   -6.128124  -22.469787
Ag    4.085416   -6.128124  -18.384371
Ag    4.085416   -6.128124  -14.298955
Ag    4.085416   -6.128124  -10.213540
Ag    4.085416   -6.128124   -6.128124
Ag    4.085416   -6.128124   -2.042708
Ag    4.085416   -6.128124    2.042708
Ag    4.085416   -6.128124    6.128124
Ag    4.085416   -6.128124   10.213540
Ag    4.085416   -6.128124   14.298955
Ag    4.085416   -6.128124   18.384371
Ag    4.085416   -6.128124   22.469787
Ag    4.085416   -2.042708  -22.469787
Ag    4.085416   -2.042708  -18.384371
Ag    4.085416   -2.042708  -14.298955
Ag    4.085416   -2.042708  -10.213540
Ag    4.085416   -2.042708   -6.128124
Ag    4.085416   -2.042708   -2.042708
Ag    4.085416   -2.042708    2.042708
Ag    4.085416   -2.042708    6.128124
Ag    4.085416   -2.042708   10.213540
Ag    4.085416   -2.042708   14.298955
Ag    4.085416   -2.042708   18.384371
Ag    4.085416   -2.042708   22.469787
Ag    4.085416    2.042708  -22.469787
Ag    4.085416    2.042708  -18.384371
Ag    4.085416    2.042708  -14.298955
Ag    4.085416    2.042708  -10.213540
Ag    4.085416    2.042708   -6.128124
Ag    4.085416    2.042708   -2.042708
Ag    4.085416    2.042708    2.042708
Ag    4.085416    2.042708    6.128124
Ag    4.085416    2.042708   10.213540
Ag    4.085416    2.042708   14.298955
Ag    4.085416    2.042708   18.384371
Ag    4.085416    2.042708   22.469787
Ag    4.085416    6.128124  -22.469787
Ag    4.085416    6.128124  -18.384371
Ag    4.085416    6.128124  -14.298955
Ag    4.085416    6.128124  -10.213540
Ag    4.085416    6.128124   -6.128124
Ag    4.085416    6.128124   -2.042708
Ag    4.085416    6.128124    2.042708
Ag    4.085416    6.128124    6.128124
Ag    4.085416    6.128124   10.213540
Ag    4.085416    6.128124   14.298955
Ag    4.085416    6.128124   18.384371
Ag    4.085416    6.128124   22.469787
Ag    4.085416   10.213540  -22.469787
Ag    4.085416   10.213540  -18.384371
Ag    4.085416   10.213540  -14.298955
Ag    4.085416   10.213540  -10.213540
Ag    4.085416   10.213540   -6.128124
Ag    4.085416   10.213540   -2.042708
Ag    4.085416   10.213540    2.042708
Ag    4.085416   10.213540    6.128124
Ag    4.085416   10.213540   10.213540
Ag    4.085416   10.213540   14.298955
Ag    4.085416   10.213540   18.384371
Ag    4.085416   10.213540   22.469787
Ag    4.085416   14.298955  -18.384371
Ag    4.085416   14.298955  -14.298955
Ag    4.085416   14.298955  -10.213540
Ag    4.085416   14.298955   -6.128124
Ag    4.085416   14.298955   -2.042708
Ag    4.085416   14.298955    2.042708
Ag    4.085416   14.298955    6.128124
Ag    4.085416   14.298955   10.213540
Ag    4.085416   14.298955   14.298955
Ag    4.085416   14.298955   18.384371
Ag    4.085416   18.384371  -14.298955
Ag    4.085416   18.384371  -10.213540
Ag    4.085416   18.384371   -6.128124
Ag    4.085416   18.384371   -2.042708
Ag    4.085416   18.384371    2.042708
Ag    4.085416   18.384371    6.128124
Ag    4.085416   18.384371   10.213540
Ag    4.085416   18.384371   14.298955
Ag    4.085416   22.469787  -10.213540
Ag    4.085416   22.469787   -6.128124
Ag    4.085416   22.469787   -2.042708
Ag    4.085416   22.469787    2.042708
Ag    4.085416   22.469787    6.128124
Ag    4.085416   22.469787   10.213540
Ag    8.170832  -22.469787  -10.213540
Ag    8.170832  -22.469787   -6.128124
Ag    8.170832  -22.469787   -2.042708
Ag    8.170832  -22.469787    2.042708
Ag    8.170832  -22.469787    6.128124
Ag    8.170832  -22.469787   10.213540
Ag    8.170832  -18.384371  -14.298955
Ag    8.170832  -18.384371  -10.213540
Ag    8.170832  -18.384371   -6.128124
Ag    8.170832  -18.384371   -2.042708
Ag    8.170832  -18.384371    2.042708
Ag    8.170832  -18.384371    6.128124
Ag    8.170832  -18.384371   10.213540
Ag    8.170832  -18.384371   14.298955
Ag    8.170832  -14.298955  -18.384371
Ag    8.170832  -14.298955  -14.298955
Ag    8.170832  -14.298955  -10.213540
Ag    8.170832  -14.298955   -6.128124
Ag    8.170832  -14.298955   -2.042708
Ag    8.170832  -14.298955    2.042708
Ag    8.170832  -14.298955    6.128124
Ag    8.170832  -14.298955   10.213540
Ag    8.170832  -14.298955   14.298955
Ag    8.170832  -14.298955   18.384371
Ag    8.170832  -10.213540  -22.469787
Ag    8.170832  -10.213540  -18.384371
Ag    8.170832  -10.213540  -14.298955
Ag    8.170832  -10.213540  -10.213540
Ag    8.170832  -10.213540   -6.128124
Ag    8.170832  -10.213540   -2.042708
Ag    8.170832  -10.213540    2.042708
Ag    8.170832  -10.213540    6.128124
Ag    8.170832  -10.213540   10.213540
Ag    8.170832  -10.213540   14.298955
Ag    8.170832  -10.213540   18.384371
Ag    8.170832  -10.213540   22.469787
Ag    8.170832   -6.128124  -22.469787
Ag    8.170832   -6.128124  -18.384371
Ag    8.170832   -6.128124  -14.298955
Ag    8.170832   -6.128124  -10.213540
Ag    8.170832   -6.128124   -6.128124
Ag    8.170832   -6.128124   -2.042708
Ag    8.170832   -6.128124    2.042708
Ag    8.170832   -6.128124    6.128124
Ag    8.170832   -6.128124   10.213540
Ag    8.170832   -6.128124   14.298955
Ag    8.170832   -6.128124   18.384371
Ag    8.170832   -6.128124   22.469787
Ag    8.170832   -2.042708  -22.469787
Ag    8.170832   -2.042708  -18.384371
Ag    8.170832   -2.042708  -14.298955
Ag    8.170832   -2.042708  -10.213540
Ag    8.170832   -2.042708   -6.128124
Ag    8.170832   -2.042708   -2.042708
Ag    8.170832   -2.042708    2.042708
Ag    8.170832   -2.042708    6.128124
Ag    8.170832   -2.042708   10.213540
Ag    8.170832   -2.042708   14.298955
Ag    8.170832   -2.042708   18.384371
Ag    8.170832   -2.042708   22.469787
Ag    8.170832    2.042708  -22.469787
Ag    8.170832    2.042708  -18.384371
Ag    8.170832    2.042708  -14.298955
Ag    8.170832    2.042708  -10.213540
Ag    8.170832    2.042708   -6.128124
Ag    8.170832    2.042708   -2.042708
Ag    8.170832    2.042708    2.042708
Ag    8.170832    2.042708    6.128124
Ag    8.170832    2.042708   10.213540
Ag    8.170832    2.042708   14.298955
Ag    8.170832    2.042708   18.384371
Ag    8.170832    2.042708   22.469787
Ag    8.170832    6.128124  -22.469787
Ag    8.170832    6.128124  -18.384371
Ag    8.170832    6.128124  -14.298955
Ag    8.170832    6.128124  -10.213540
Ag    8.170832    6.128124   -6.128124
Ag    8.170832    6.128124   -2.042708
Ag    8.170832    6.128124    2.042708
Ag    8.170832    6.128124    6.128124
Ag    8.170832    6.128124   10.213540
Ag    8.170832    6.128124   14.298955
Ag    8.170832    6.128124   18.384371
Ag    8.170832    6.128124   22.469787
Ag    8.170832   10.213540  -22.469787
Ag    8.170832   10.213540  -18.384371
Ag    8.170832   10.213540  -14.298955
Ag    8.170832   10.213540  -10.213540
Ag    8.170832   10.213540   -6.128124
Ag    8.170832   10.213540   -2.042708
Ag    8.170832   10.213540    2.042708
Ag    8.170832   10.213540    6.128124
Ag    8.170832   10.213540   10.213540
Ag    8.170832   10.213540   14.298955
Ag    8.170832   10.213540   18.384371
Ag    8.170832   10.213540   22.469787
Ag    8.170832   14.298955  -18.384371
Ag    8.170832   14.298955  -14.298955
Ag    8.170832   14.298955  -10.213540
Ag    8.170832   14.298955   -6.128124
Ag    8.170832   14.298955   -2.042708
Ag    8.170832   14.298955    2.042708
Ag    8.170832   14.298955    6.128124
Ag    8.170832   14.298955   10.213540
Ag    8.170832   14.298955   14.298955
Ag    8.170832   14.298955   18.384371
Ag    8.170832   18.384371  -14.298955
Ag    8.170832   18.384371  -10.213540
Ag    8.170832   18.384371   -6.128124
Ag    8.170832   18.384371   -2.042708
Ag    8.170832   18.384371    2.042708
Ag    8.170832   18.384371    6.128124
Ag    8.170832   18.384371   10.213540
Ag    8.170832   18.384371   14.298955
Ag    8.170832   22.469787  -10.213540
Ag    8.170832   22.469787   -6.128124
Ag    8.170832   22.469787   -2.042708
Ag    8.170832   22.469787    2.042708
Ag    8.170832   22.469787    6.128124
Ag    8.170832   22.469787   10.213540
Ag   12.256248  -18.384371  -14.298955
Ag   12.256248  -18.384371  -10.213540
Ag   12.256248  -18.384371   -6.128124
Ag   12.256248  -18.384371   -2.042708
Ag   12.256248  -18.384371    2.042708
Ag   12.256248  -18.384371    6.128124
Ag   12.256248  -18.384371   10.213540
Ag   12.256248  -18.384371   14.298955
Ag   12.256248  -14.298955  -18.384371
Ag   12.256248  -14.298955  -14.298955
Ag   12.256248  -14.298955  -10.213540
Ag   12.256248  -14.298955   -6.128124
Ag   12.256248  -14.298955   -2.042708
Ag   12.256248  -14.298955    2.042708
Ag   12.256248  -14.298955    6.128124
Ag   12.256248  -14.298955   10.213540
Ag   12.256248  -14.298955   14.298955
Ag   12.256248  -14.298955   18.384371
Ag   12.256248  -10.213540  -18.384371
Ag   12.256248  -10.213540  -14.298955
Ag   12.256248  -10.213540  -10.213540
Ag   12.256248  -10.213540   -6.128124
Ag   12.256248  -10.213540   -2.042708
Ag   12.256248  -10.213540    2.042708
Ag   12.256248  -10.213540    6.128124
Ag   12.256248  -10.213540   10.213540
Ag   12.256248  -10.213540   14.298955
Ag   12.256248  -10.213540   18.384371
Ag   12.256248   -6.128124  -18.384371
Ag   12.256248   -6.128124  -14.298955
Ag   12.256248   -6.128124  -10.213540
Ag   12.256248   -6.128124   -6.128124
Ag   12.256248   -6.128124   -2.042708
Ag   12.256248   -6.128124    2.042708
Ag   12.256248   -6.128124    6.128124
Ag   12.256248   -6.128124   10.213540
Ag   12.256248   -6.128124   14.298955
Ag   12.256248   -6.128124   18.384371
Ag   12.256248   -2.042708  -18.384371
Ag   12.256248   -2.042708  -14.298955
Ag   12.256248   -2.042708  -10.213540
Ag   12.256248   -2.042708   -6.128124
Ag   12.256248   -2.042708   -2.042708
Ag   12.256248   -2.042708    2.042708
Ag   12.256248   -2.042708    6.128124
Ag   12.256248   -2.042708   10.213540
Ag   12.256248   -2.042708   14.298955
Ag   12.256248   -2.042708   18.384371
Ag   12.256248    2.042708  -18.384371
Ag   12.256248    2.042708  -14.298955
Ag   12.256248    2.042708  -10.213540
Ag   12.256248    2.042708   -6.128124
Ag   12.256248    2.042708   -2.042708
Ag   12.256248    2.042708    2.042708
Ag   12.256248    2.042708    6.128124
Ag   12.256248    2.042708   10.213540
Ag   12.256248    2.042708   14.298955
Ag   12.256248    2.042708   18.384371
Ag   12.256248    6.128124  -18.384371
Ag   12.256248    6.128124  -14.298955
Ag   12.256248    6.128124  -10.213540
Ag   12.256248    6.128124   -6.128124
Ag   12.256248    6.128124   -2.042708
Ag   12.256248    6.128124    2.042708
Ag   12.256248    6.128124    6.128124
Ag   12.256248    6.128124   10.213540
Ag   12.256248    6.128124   14.298955
Ag   12.256248    6.128124   18.384371
Ag   12.256248   10.213540  -18.384371
Ag   12.256248   10.213540  -14.298955
Ag   12.256248   10.213540  -10.213540
Ag   12.256248   10.213540   -6.128124
Ag   12.256248   10.213540   -2.042708
Ag   12.256248   10.213540    2.042708
Ag   12.256248   10.213540    6.128124
Ag   12.256248   10.213540   10.213540
Ag   12.256248   10.213540   14.298955
Ag   12.256248   10.213540   18.384371
Ag   12.256248   14.298955  -18.384371
Ag   12.256248   14.298955  -14.298955
Ag   12.256248   14.298955  -10.213540
Ag   12.256248   14.298955   -6.128124
Ag   12.256248   14.298955   -2.042708
Ag   12.256248   14.298955    2.042708
Ag   12.256248   14.298955    6.128124
Ag   12.256248   14.298955   10.213540
Ag   12.256248   14.298955   14.298955
Ag   12.256248   14.298955   18.384371
Ag   12.256248   18.384371  -14.298955
Ag   12.256248   18.384371  -10.213540
Ag   12.256248   18.384371   -6.128124
Ag   12.256248   18.384371   -2.042708
Ag   12.256248   18.384371    2.042708
Ag   12.256248   18.384371    6.128124
Ag   12.256248   18.384371   10.213540
Ag   12.256248   18.384371   14.298955
Ag   16.341663  -14.298955  -14.298955
Ag   16.341663  -14.298955  -10.213540
Ag   16.341663  -14.298955   -6.128124
Ag   16.341663  -14.298955   -2.042708
Ag   16.341663  -14.298955    2.042708
Ag   16.341663  -14.298955    6.128124
Ag   16.341663  -14.298955   10.213540
Ag   16.341663  -14.298955   14.298955
Ag   16.341663  -10.213540  -14.298955
Ag   16.341663  -10.213540  -10.213540
Ag   16.341663  -10.213540   -6.128124
Ag   16.341663  -10.213540   -2.042708
Ag   16.341663  -10.213540    2.042708
Ag   16.341663  -10.213540    6.128124
Ag   16.341663  -10.213540   10.213540
Ag   16.341663  -10.213540   14.298955
Ag   16.341663   -6.128124  -14.298955
Ag   16.341663   -6.128124  -10.213540
Ag   16.341663   -6.128124   -6.128124
Ag   16.341663   -6.128124   -2.042708
Ag   16.341663   -6.128124    2.042708
Ag   16.341663   -6.128124    6.128124
Ag   16.341663   -6.128124   10.213540
Ag   16.341663   -6.128124   14.298955
Ag   16.341663   -2.042708  -14.298955
Ag   16.341663   -2.042708  -10.213540
Ag   16.341663   -2.042708   -6.128124
Ag   16.341663   -2.042708   -2.042708
Ag   16.341663   -2.042708    2.042708
Ag   16.341663   -2.042708    6.128124
Ag   16.341663   -2.042708   10.213540
Ag   16.341663   -2.042708   14.298955
Ag   16.341663    2.042708  -14.298955
Ag   16.341663    2.042708  -10.213540
Ag   16.341663    2.042708   -6.128124
Ag   16.341663    2.042708   -2.042708
Ag   16.341663    2.042708    2.042708
Ag   16.341663    2.042708    6.128124
Ag   16.341663    2.042708   10.213540
Ag   16.341663    2.042708   14.298955
Ag   16.341663    6.128124  -14.298955
Ag   16.341663    6.128124  -10.213540
Ag   16.341663    6.128124   -6.128124
Ag   16.341663    6.128124   -2.042708
Ag   16.341663    6.128124    2.042708
Ag   16.341663    6.128124    6.128124
Ag   16.341663    6.128124   10.213540
Ag   16.341663    6.128124   14.298955
Ag   16.341663   10.213540  -14.298955
Ag   16.341663   10.213540  -10.213540
Ag   16.341663   10.213540   -6.128124
Ag   16.341663   10.213540   -2.042708
Ag   16.341663   10.213540    2.042708
Ag   16.341663   10.213540    6.128124
Ag   16.341663   10.213540   10.213540
Ag   16.341663   10.213540   14.298955
Ag   16.341663   14.298955  -14.298955
Ag   16.341663   14.298955  -10.213540
Ag   16.341663   14.298955   -6.128124
Ag   16.341663   14.298955   -2.042708
Ag   16.341663   14.298955    2.042708
Ag   16.341663   14.298955    6.128124
Ag   16.341663   14.298955   10.213540
Ag   16.341663   14.298955   14.298955
Ag   20.427079  -10.213540  -10.213540
Ag   20.427079  -10.213540   -6.128124
Ag   20.427079  -10.213540   -2.042708
Ag   20.427079  -10.213540    2.042708
Ag   20.427079  -10.213540    6.128124
Ag   20.427079  -10.213540   10.213540
Ag   20.427079   -6.128124  -10.213540
Ag   20.427079   -6.128124   -6.128124
Ag   20.427079   -6.128124   -2.042708
Ag   20.427079   -6.128124    2.042708
Ag   20.427079   -6.128124    6.128124
Ag   20.427079   -6.128124   10.213540
Ag   20.427079   -2.042708  -10.213540
Ag   20.427079   -2.042708   -6.128124
Ag   20.427079   -2.042708   -2.042708
Ag   20.427079   -2.042708    2.042708
Ag   20.427079   -2.042708    6.128124
Ag   20.427079   -2.042708   10.213540
Ag   20.427079    2.042708  -10.213540
Ag   20.427079    2.042708   -6.128124
Ag   20.427079    2.042708   -2.042708
Ag   20.427079    2.042708    2.042708
Ag   20.427079    2.042708    6.128124
Ag   20.427079    2.042708   10.213540
Ag   20.427079    6.128124  -10.213540
Ag   20.427079    6.128124   -6.128124
Ag   20.427079    6.128124   -2.042708
Ag   20.427079    6.128124    2.042708
Ag   20.427079    6.128124    6.128124
Ag   20.427079    6.128124   10.213540
Ag   20.427079   10.213540  -10.213540
Ag   20.427079   10.213540   -6.128124
Ag   20.427079   10.213540   -2.042708
Ag   20.427079   10.213540    2.042708
Ag   20.427079   10.213540    6.128124
Ag   20.427079   10.213540   10.213540
Ag  -22.469787   -8.170832  -10.213540
Ag  -22.469787   -8.170832   -6.128124
Ag  -22.469787   -8.170832   -2.042708
Ag  -22.469787   -8.170832    2.042708
Ag  -22.469787   -8.170832    6.128124
Ag  -22.469787   -8.170832   10.213540
Ag  -22.469787   -4.085416  -10.213540
Ag  -22.469787   -4.085416   -6.128124
Ag  -22.469787   -4.085416   -2.042708
Ag  -22.469787   -4.085416    2.042708
Ag  -22.469787   -4.085416    6.128124
Ag  -22.469787   -4.085416   10.213540
Ag  -22.469787   -0.000000  -10.213540
Ag  -22.469787   -0.000000   -6.128124
Ag  -22.469787   -0.000000   -2.042708
Ag  -22.469787    0.000000    2.042708
Ag  -22.469787    0.000000    6.128124
Ag  -22.469787    0.000000   10.213540
Ag  -22.469787    4.085416  -10.213540
Ag  -22.469787    4.085416   -6.128124
Ag  -22.469787    4.085416   -2.042708
Ag  -22.469787    4.085416    2.042708
Ag  -22.469787    4.085416    6.128124
Ag  -22.469787    4.085416   10.213540
Ag  -22.469787    8.170832  -10.213540
Ag  -22.469787    8.170832   -6.128124
Ag  -22.469787    8.170832   -2.042708
Ag  -22.469787    8.170832    2.042708
Ag  -22.469787    8.170832    6.128124
Ag  -22.469787    8.170832   10.213540
Ag  -18.384371  -12.256248  -14.298955
Ag  -18.384371  -12.256248  -10.213540
Ag  -18.384371  -12.256248   -6.128124
Ag  -18.384371  -12.256248   -2.042708
Ag  -18.384371  -12.256248    2.042708
Ag  -18.384371  -12.256248    6.128124
Ag  -18.384371  -12.256248   10.213540
Ag  -18.384371  -12.256248   14.298955
Ag  -18.384371   -8.170832  -14.298955
Ag  -18.384371   -8.170832  -10.213540
Ag  -18.384371   -8.170832   -6.128124
Ag  -18.384371   -8.170832   -2.042708
Ag  -18.384371   -8.170832    2.042708
Ag  -18.384371   -8.170832    6.128124
Ag  -18.384371   -8.170832   10.213540
Ag  -18.384371   -8.170832   14.298955
Ag  -18.384371   -4.085416  -14.298955
Ag  -18.384371   -4.085416  -10.213540
Ag  -18.384371   -4.085416   -6.128124
Ag  -18.384371   -4.085416   -2.042708
Ag  -18.384371   -4.085416    2.042708
Ag  -18.384371   -4.085416    6.128124
Ag  -18.384371   -4.085416   10.213540
Ag  -18.384371   -4.085416   14.298955
Ag  -18.384371   -0.000000  -14.298955
Ag  -18.384371   -0.000000  -10.213540
Ag  -18.384371   -0.000000   -6.128124
Ag  -18.384371   -0.000000   -2.042708
Ag  -18.384371    0.000000    2.042708
Ag  -18.384371    0.000000    6.128124
Ag  -18.384371    0.000000   10.213540
Ag  -18.384371    0.000000   14.298955
Ag  -18.384371    4.085416  -14.298955
Ag  -18.384371    4.085416  -10.213540
Ag  -18.384371    4.085416   -6.128124
Ag  -18.384371    4.085416   -2.042708
Ag  -18.384371    4.085416    2.042708
Ag  -18.384371    4.085416    6.128124
Ag  -18.384371    4.085416   10.213540
Ag  -18.384371    4.085416   14.298955
Ag  -18.384371    8.170832  -14.298955
Ag  -18.384371    8.170832  -10.213540
Ag  -18.384371    8.170832   -6.128124
Ag  -18.384371    8.170832   -2.042708
Ag  -18.384371    8.170832    2.042708
Ag  -18.384371    8.170832    6.128124
Ag  -18.384371    8.170832   10.213540
Ag  -18.384371    8.170832   14.298955
Ag  -18.384371   12.256248  -14.298955
Ag  -18.384371   12.256248  -10.213540
Ag  -18.384371   12.256248   -6.128124
Ag  -18.384371   12.256248   -2.042708
Ag  -18.384371   12.256248    2.042708
Ag  -18.384371   12.256248    6.128124
Ag  -18.384371   12.256248   10.213540
Ag  -18.384371   12.256248   14.298955
Ag  -14.298955  -16.341663  -14.298955
Ag  -14.298955  -16.341663  -10.213540
Ag  -14.298955  -16.341663   -6.128124
Ag  -14.298955  -16.341663   -2.042708
Ag  -14.298955  -16.341663    2.042708
Ag  -14.298955  -16.341663    6.128124
Ag  -14.298955  -16.341663   10.213540
Ag  -14.298955  -16.341663   14.298955
Ag  -14.298955  -12.256248  -18.384371
Ag  -14.298955  -12.256248  -14.298955
Ag  -14.298955  -12.256248  -10.213540
Ag  -14.298955  -12.256248   -6.128124
Ag  -14.298955  -12.256248   -2.042708
Ag  -14.298955  -12.256248    2.042708
Ag  -14.298955  -12.256248    6.128124
Ag  -14.298955  -12.256248   10.213540
Ag  -14.298955  -12.256248   14.298955
Ag  -14.298955  -12.256248   18.384371
Ag  -14.298955   -8.170832  -18.384371
Ag  -14.298955   -8.170832  -14.298955
Ag  -14.298955   -8.170832  -10.213540
Ag  -14.298955   -8.170832   -6.128124
Ag  -14.298955   -8.170832   -2.042708
Ag  -14.298955   -8.170832    2.042708
Ag  -14.298955   -8.170832    6.128124
Ag  -14.298955   -8.170832   10.213540
Ag  -14.298955   -8.170832   14.298955
Ag  -14.298955   -8.170832   18.384371
Ag  -14.298955   -4.085416  -18.384371
Ag  -14.298955   -4.085416  -14.298955
Ag  -14.298955   -4.085416  -10.213540
Ag  -14.298955   -4.085416   -6.128124
Ag  -14.298955   -4.085416   -2.042708
Ag  -14.298955   -4.085416    2.042708
Ag  -14.298955   -4.085416    6.128124
Ag  -14.298955   -4.085416   10.213540
Ag  -14.298955   -4.085416   14.298955
Ag  -14.298955   -4.085416   18.384371
Ag  -14.298955   -0.000000  -18.384371
Ag  -14.298955   -0.000000  -14.298955
Ag  -14.298955   -0.000000  -10.213540
Ag  -14.298955   -0.000000   -6.128124
Ag  -14.298955   -0.000000   -2.042708
Ag  -14.298955    0.000000    2.042708
Ag  -14.298955    0.000000    6.128124
Ag  -14.298955    0.000000   10.213540
Ag  -14.298955    0.000000   14.298955
Ag  -14.298955    0.000000   18.384371
Ag  -14.298955    4.085416  -18.384371
Ag  -14.298955    4.085416  -14.298955
Ag  -14.298955    4.085416  -10.213540
Ag  -14.298955    4.085416   -6.128124
Ag  -14.298955    4.085416   -2.042708
Ag  -14.298955    4.085416    2.042708
Ag  -14.298955    4.085416    6.128124
Ag  -14.298955    4.085416   10.213540
Ag  -14.298955    4.085416   14.298955
Ag  -14.298955    4.085416   18.384371
Ag  -14.298955    8.170832  -18.384371
Ag  -14.298955    8.170832  -14.298955
Ag  -14.298955    8.170832  -10.213540
Ag  -14.298955    8.170832   -6.128124
Ag  -14.298955    8.170832   -2.042708
Ag  -14.298955    8.170832    2.042708
Ag  -14.298955    8.170832    6.128124
Ag  -14.298955    8.170832   10.213540
Ag  -14.298955    8.170832   14.298955
Ag  -14.298955    8.170832   18.384371
Ag  -14.298955   12.256248  -18.384371
Ag  -14.298955   12.256248  -14.298955
Ag  -14.298955   12.256248  -10.213540
Ag  -14.298955   12.256248   -6.128124
Ag  -14.298955   12.256248   -2.042708
Ag  -14.298955   12.256248    2.042708
Ag  -14.298955   12.256248    6.128124
Ag  -14.298955   12.256248   10.213540
Ag  -14.298955   12.256248   14.298955
Ag  -14.298955   12.256248   18.384371
Ag  -14.298955   16.341663  -14.298955
Ag  -14.298955   16.341663  -10.213540
Ag  -14.298955   16.341663   -6.128124
Ag  -14.298955   16.341663   -2.042708
Ag  -14.298955   16.341663    2.042708
Ag  -14.298955   16.341663    6.128124
Ag  -14.298955   16.341663   10.213540
Ag  -14.298955   16.341663   14.298955
Ag  -10.213540  -20.427079  -10.213540
Ag  -10.213540  -20.427079   -6.128124
Ag  -10.213540  -20.427079   -2.042708
Ag  -10.213540  -20.427079    2.042708
Ag  -10.213540  -20.427079    6.128124
Ag  -10.213540  -20.427079   10.213540
Ag  -10.213540  -16.341663  -14.298955
Ag  -10.213540  -16.341663  -10.213540
Ag  -10.213540  -16.341663   -6.128124
Ag  -10.213540  -16.341663   -2.042708
Ag  -10.213540  -16.341663    2.042708
Ag  -10.213540  -16.341663    6.128124
Ag  -10.213540  -16.341663   10.213540
Ag  -10.213540  -16.341663   14.298955
Ag  -10.213540  -12.256248  -18.384371
Ag  -10.213540  -12.256248  -14.298955
Ag  -10.213540  -12.256248  -10.213540
Ag  -10.213540  -12.256248   -6.128124
Ag  -10.213540  -12.256248   -2.042708
Ag  -10.213540  -12.256248    2.042708
Ag  -10.213540  -12.256248    6.128124
Ag  -10.213540  -12.256248   10.213540
Ag  -10.213540  -12.256248   14.298955
Ag  -10.213540  -12.256248   18.384371
Ag  -10.213540   -8.170832  -22.469787
Ag  -10.213540   -8.170832  -18.384371
Ag  -10.213540   -8.170832  -14.298955
Ag  -10.213540   -8.170832  -10.213540
Ag  -10.213540   -8.170832   -6.128124
Ag  -10.213540   -8.170832   -2.042708
Ag  -10.213540   -8.170832    2.042708
Ag  -10.213540   -8.170832    6.128124
Ag  -10.213540   -8.170832   10.213540
Ag  -10.213540   -8.170832   14.298955
Ag  -10.213540   -8.170832   18.384371
Ag  -10.213540   -8.170832   22.469787
Ag  -10.213540   -4.085416  -22.469787
Ag  -10.213540   -4.085416  -18.384371
Ag  -10.213540   -4.085416  -14.298955
Ag  -10.213540   -4.085416  -10.213540
Ag  -10.213540   -4.085416   -6.128124
Ag  -10.213540   -4.085416   -2.042708
Ag  -10.213540   -4.085416    2.042708
Ag  -10.213540   -4.085416    6.128124
Ag  -10.213540   -4.085416   10.213540
Ag  -10.213540   -4.085416   14.298955
Ag  -10.213540   -4.085416   18.384371
Ag  -10.213540   -4.085416   22.469787
Ag  -10.213540   -0.000000  -22.469787
Ag  -10.213540   -0.000000  -18.384371
Ag  -10.213540   -0.000000  -14.298955
Ag  -10.213540   -0.000000  -10.213540
Ag  -10.213540   -0.000000   -6.128124
Ag  -10.213540   -0.000000   -2.042708
Ag  -10.213540    0.000000    2.042708
Ag  -10.213540    0.000000    6.128124
Ag  -10.213540    0.000000   10.213540
Ag  -10.213540    0.000000   14.298955
Ag  -10.213540    0.000000   18.384371
Ag  -10.213540    0.000000   22.469787
Ag  -10.213540    4.085416  -22.469787
Ag  -10.213540    4.085416  -18.384371
Ag  -10.213540    4.085416  -14.298955
Ag  -10.213540    4.085416  -10.213540
Ag  -10.213540    4.085416   -6.128124
Ag  -10.213540    4.085416   -2.042708
Ag  -10.213540    4.085416    2.042708
Ag  -10.213540    4.085416    6.128124
Ag  -10.213540    4.085416   10.213540
Ag  -10.213540    4.085416   14.298955
Ag  -10.213540    4.085416   18.384371
Ag  -10.213540    4.085416   22.469787
Ag  -10.213540    8.170832  -22.469787
Ag  -10.213540    8.170832  -18.384371
Ag  -10.213540    8.170832  -14.298955
Ag  -10.213540    8.170832  -10.213540
Ag  -10.213540    8.170832   -6.128124
Ag  -10.213540    8.170832   -2.042708
Ag  -10.213540    8.170832    2.042708
Ag  -10.213540    8.170832    6.128124
Ag  -10.213540    8.170832   10.213540
Ag  -10.213540    8.170832   14.298955
Ag  -10.213540    8.170832   18.384371
Ag  -10.213540    8.170832   22.469787
Ag  -10.213540   12.256248  -18.384371
Ag  -10.213540   12.256248  -14.298955
Ag  -10.213540   12.256248  -10.213540
Ag  -10.213540   12.256248   -6.128124
Ag  -10.213540   12.256248   -2.042708
Ag  -10.213540   12.256248    2.042708
Ag  -10.213540   12.256248    6.128124
Ag  -10.213540   12.256248   10.213540
Ag  -10.213540   12.256248   14.298955
Ag  -10.213540   12.256248   18.384371
Ag  -10.213540   16.341663  -14.298955
Ag  -10.213540   16.341663  -10.213540
Ag  -10.213540   16.341663   -6.128124
Ag  -10.213540   16.341663   -2.042708
Ag  -10.213540   16.341663    2.042708
Ag  -10.213540   16.341663    6.128124
Ag  -10.213540   16.341663   10.213540
Ag  -10.213540   16.341663   14.298955
Ag  -10.213540   20.427079  -10.213540
Ag  -10.213540   20.427079   -6.128124
Ag  -10.213540   20.427079   -2.042708
Ag  -10.213540   20.427079    2.042708
Ag  -10.213540   20.427079    6.128124
Ag  -10.213540   20.427079   10.213540
Ag   -6.128124  -20.427079  -10.213540
Ag   -6.128124  -20.427079   -6.128124
Ag   -6.128124  -20.427079   -2.042708
Ag   -6.128124  -20.427079    2.042708
Ag   -6.128124  -20.427079    6.128124
Ag   -6.128124  -20.427079   10.213540
Ag   -6.128124  -16.341663  -14.298955
Ag   -6.128124  -16.341663  -10.213540
Ag   -6.128124  -16.341663   -6.128124
Ag   -6.128124  -16.341663   -2.042708
Ag   -6.128124  -16.341663    2.042708
Ag   -6.128124  -16.341663    6.128124
Ag   -6.128124  -16.341663   10.213540
Ag   -6.128124  -16.341663   14.298955
Ag   -6.128124  -12.256248  -18.384371
Ag   -6.128124  -12.256248  -14.298955
Ag   -6.128124  -12.256248  -10.213540
Ag   -6.128124  -12.256248   -6.128124
Ag   -6.128124  -12.256248   -2.042708
Ag   -6.128124  -12.256248    2.042708
Ag   -6.128124  -12.256248    6.128124
Ag   -6.128124  -12.256248   10.213540
Ag   -6.128124  -12.256248   14.298955
Ag   -6.128124  -12.256248   18.384371
Ag   -6.128124   -8.170832  -22.469787
Ag   -6.128124   -8.170832  -18.384371
Ag   -6.128124   -8.170832  -14.298955
Ag   -6.128124   -8.170832  -10.213540
Ag   -6.128124   -8.170832   -6.128124
Ag   -6.128124   -8.170832   -2.042708
Ag   -6.128124   -8.170832    2.042708
Ag   -6.128124   -8.170832    6.128124
Ag   -6.128124   -8.170832   10.213540
Ag   -6.128124   -8.170832   14.298955
Ag   -6.128124   -8.170832   18.384371
Ag   -6.128124   -8.170832   22.469787
Ag   -6.128124   -4.085416  -22.469787
Ag   -6.128124   -4.085416  -18.384371
Ag   -6.128124   -4.085416  -14.298955
Ag   -6.128124   -4.085416  -10.213540
Ag   -6.128124   -4.085416   -6.128124
Ag   -6.128124   -4.085416   -2.042708
Ag   -6.128124   -4.085416    2.042708
Ag   -6.128124   -4.085416    6.128124
Ag   -6.128124   -4.085416   10.213540
Ag   -6.128124   -4.085416   14.298955
Ag   -6.128124   -4.085416   18.384371
Ag   -6.128124   -4.085416   22.469787
Ag   -6.128124   -0.000000  -22.469787
Ag   -6.128124   -0.000000  -18.384371
Ag   -6.128124   -0.000000  -14.298955
Ag   -6.128124   -0.000000  -10.213540
Ag   -6.128124   -0.000000   -6.128124
Ag   -6.128124   -0.000000   -2.042708
Ag   -6.128124    0.000000    2.042708
Ag   -6.128124    0.000000    6.128124
Ag   -6.128124    0.000000   10.213540
Ag   -6.128124    0.000000   14.298955
Ag   -6.128124    0.000000   18.384371
Ag   -6.128124    0.000000   22.469787
Ag   -6.128124    4.085416  -22.469787
Ag   -6.128124    4.085416  -18.384371
Ag   -6.128124    4.085416  -14.298955
Ag   -6.128124    4.085416  -10.213540
Ag   -6.128124    4.085416   -6.128124
Ag   -6.128124    4.085416   -2.042708
Ag   -6.128124    4.085416    2.042708
Ag   -6.128124    4.085416    6.128124
Ag   -6.128124    4.085416   10.213540
Ag   -6.128124    4.085416   14.298955
Ag   -6.128124    4.085416   18.384371
Ag   -6.128124    4.085416   22.469787
Ag   -6.128124    8.170832  -22.469787
Ag   -6.128124    8.170832  -18.384371
Ag   -6.128124    8.170832  -14.298955
Ag   -6.128124    8.170832  -10.213540
Ag   -6.128124    8.170832   -6.128124
Ag   -6.128124    8.170832   -2.042708
Ag   -6.128124    8.170832    2.042708
Ag   -6.128124    8.170832    6.128124
Ag   -6.128124    8.170832   10.213540
Ag   -6.128124    8.170832   14.298955
Ag   -6.128124    8.170832   18.384371
Ag   -6.128124    8.170832   22.469787
Ag   -6.128124   12.256248  -18.384371
Ag   -6.128124   12.256248  -14.298955
Ag   -6.128124   12.256248  -10.213540
Ag   -6.128124   12.256248   -6.128124
Ag   -6.128124   12.256248   -2.042708
Ag   -6.128124   12.256248    2.042708
Ag   -6.128124   12.256248    6.128124
Ag   -6.128124   12.256248   10.213540
Ag   -6.128124   12.256248   14.298955
Ag   -6.128124   12.256248   18.384371
Ag   -6.128124   16.341663  -14.298955
Ag   -6.128124   16.341663  -10.213540
Ag   -6.128124   16.341663   -6.128124
Ag   -6.128124   16.341663   -2.042708
Ag   -6.128124   16.341663    2.042708
Ag   -6.128124   16.341663    6.128124
Ag   -6.128124   16.341663   10.213540
Ag   -6.128124   16.341663   14.298955
Ag   -6.128124   20.427079  -10.213540
Ag   -6.128124   20.427079   -6.128124
Ag   -6.128124   20.427079   -2.042708
Ag   -6.128124   20.427079    2.042708
Ag   -6.128124   20.427079    6.128124
Ag   -6.128124   20.427079   10.213540
Ag   -2.042708  -20.427079  -10.213540
Ag   -2.042708  -20.427079   -6.128124
Ag   -2.042708  -20.427079   -2.042708
Ag   -2.042708  -20.427079    2.042708
Ag   -2.042708  -20.427079    6.128124
Ag   -2.042708  -20.427079   10.213540
Ag   -2.042708  -16.341663  -14.298955
Ag   -2.042708  -16.341663  -10.213540
Ag   -2.042708  -16.341663   -6.128124
Ag   -2.042708  -16.341663   -2.042708
Ag   -2.042708  -16.341663    2.042708
Ag   -2.042708  -16.341663    6.128124
Ag   -2.042708  -16.341663   10.213540
Ag   -2.042708  -16.341663   14.298955
Ag   -2.042708  -12.256248  -18.384371
Ag   -2.042708  -12.256248  -14.298955
Ag   -2.042708  -12.256248  -10.213540
Ag   -2.042708  -12.256248   -6.128124
Ag   -2.042708  -12.256248   -2.042708
Ag   -2.042708  -12.256248    2.042708
Ag   -2.042708  -12.256248    6.128124
Ag   -2.042708  -12.256248   10.213540
Ag   -2.042708  -12.256248   14.298955
Ag   -2.042708  -12.256248   18.384371
Ag   -2.042708   -8.170832  -22.469787
Ag   -2.042708   -8.170832  -18.384371
Ag   -2.042708   -8.170832  -14.298955
Ag   -2.042708   -8.170832  -10.213540
Ag   -2.042708   -8.170832   -6.128124
Ag   -2.042708   -8.170832   -2.042708
Ag   -2.042708   -8.170832    2.042708
Ag   -2.042708   -8.170832    6.128124
Ag   -2.042708   -8.170832   10.213540
Ag   -2.042708   -8.170832   14.298955
Ag   -2.042708   -8.170832   18.384371
Ag   -2.042708   -8.170832   22.469787
Ag   -2.042708   -4.085416  -22.469787
Ag   -2.042708   -4.085416  -18.384371
Ag   -2.042708   -4.085416  -14.298955
Ag   -2.042708   -4.085416  -10.213540
Ag   -2.042708   -4.085416   -6.128124
Ag   -2.042708   -4.085416   -2.042708
Ag   -2.042708   -4.085416    2.042708
Ag   -2.042708   -4.085416    6.128124
Ag   -2.042708   -4.085416   10.213540
Ag   -2.042708   -4.085416   14.298955
Ag   -2.042708   -4.085416   18.384371
Ag   -2.042708   -4.085416   22.469787
Ag   -2.042708   -0.000000  -22.469787
Ag   -2.042708   -0.000000  -18.384371
Ag   -2.042708   -0.000000  -14.298955
Ag   -2.042708   -0.000000  -10.213540
Ag   -2.042708   -0.000000   -6.128124
Ag   -2.042708   -0.000000   -2.042708
Ag   -2.042708    0.000000    2.042708
Ag   -2.042708    0.000000    6.128124
Ag   -2.042708    0.000000   10.213540
Ag   -2.042708    0.000000   14.298955
Ag   -2.042708    0.000000   18.384371
Ag   -2.042708    0.000000   22.469787
Ag   -2.042708    4.085416  -22.469787
Ag   -2.042708    4.085416  -18.384371
Ag   -2.042708    4.085416  -14.298955
Ag   -2.042708    4.085416  -10.213540
Ag   -2.042708    4.085416   -6.128124
Ag   -2.042708    4.085416   -2.042708
Ag   -2.042708    4.085416    2.042708
Ag   -2.042708    4.085416    6.128124
Ag   -2.042708    4.085416   10.213540
Ag   -2.042708    4.085416   14.298955
Ag   -2.042708    4.085416   18.384371
Ag   -2.042708    4.085416   22.469787
Ag   -2.042708    8.170832  -22.469787
Ag   -2.042708    8.170832  -18.384371
Ag   -2.042708    8.170832  -14.298955
Ag   -2.042708    8.170832  -10.213540
Ag   -2.042708    8.170832   -6.128124
Ag   -2.042708    8.170832   -2.042708
Ag   -2.042708    8.170832    2.042708
Ag   -2.042708    8.170832    6.128124
Ag   -2.042708    8.170832   10.213540
Ag   -2.042708    8.170832   14.298955
Ag   -2.042708    8.170832   18.384371
Ag   -2.042708    8.170832   22.469787
Ag   -2.042708   12.256248  -18.384371
Ag   -2.042708   12.256248  -14.298955
Ag   -2.042708   12.256248  -10.213540
Ag   -2.042708   12.256248   -6.128124
Ag   -2.042708   12.256248   -2.042708
Ag   -2.042708   12.256248    2.042708
Ag   -2.042708   12.256248    6.128124
Ag   -2.042708   12.256248   10.213540
Ag   -2.042708   12.256248   14.298955
Ag   -2.042708   12.256248   18.384371
Ag   -2.042708   16.341663  -14.298955
Ag   -2.042708   16.341663  -10.213540
Ag   -2.042708   16.341663   -6.128124
Ag   -2.042708   16.341663   -2.042708
Ag   -2.042708   16.341663    2.042708
Ag   -2.042708   16.341663    6.128124
Ag   -2.042708   16.341663   10.213540
Ag   -2.042708   16.341663   14.298955
Ag   -2.042708   20.427079  -10.213540
Ag   -2.042708   20.427079   -6.128124
Ag   -2.042708   20.427079   -2.042708
Ag   -2.042708   20.427079    2.042708
Ag   -2.042708   20.427079    6.128124
Ag   -2.042708   20.427079   10.213540
Ag    2.042708  -20.427079  -10.213540
Ag    2.042708  -20.427079   -6.128124
Ag    2.042708  -20.427079   -2.042708
Ag    2.042708  -20.427079    2.042708
Ag    2.042708  -20.427079    6.128124
Ag    2.042708  -20.427079   10.213540
Ag    2.042708  -16.341663  -14.298955
Ag    2.042708  -16.341663  -10.213540
Ag    2.042708  -16.341663   -6.128124
Ag    2.042708  -16.341663   -2.042708
Ag    2.042708  -16.341663    2.042708
Ag    2.042708  -16.341663    6.128124
Ag    2.042708  -16.341663   10.213540
Ag    2.042708  -16.341663   14.298955
Ag    2.042708  -12.256248  -18.384371
Ag    2.042708  -12.256248  -14.298955
Ag    2.042708  -12.256248  -10.213540
Ag    2.042708  -12.256248   -6.128124
Ag    2.042708  -12.256248   -2.042708
Ag    2.042708  -12.256248    2.042708
Ag    2.042708  -12.256248    6.128124
Ag    2.042708  -12.256248   10.213540
Ag    2.042708  -12.256248   14.298955
Ag    2.042708  -12.256248   18.384371
Ag    2.042708   -8.170832  -22.469787
Ag    2.042708   -8.170832  -18.384371
Ag    2.042708   -8.170832  -14.298955
Ag    2.042708   -8.170832  -10.213540
Ag    2.042708   -8.170832   -6.128124
Ag    2.042708   -8.170832   -2.042708
Ag    2.042708   -8.170832    2.042708
Ag    2.042708   -8.170832    6.128124
Ag    2.042708   -8.170832   10.213540
Ag    2.042708   -8.170832   14.298955
Ag    2.042708   -8.170832   18.384371
Ag    2.042708   -8.170832   22.469787
Ag    2.042708   -4.085416  -22.469787
Ag    2.042708   -4.085416  -18.384371
Ag    2.042708   -4.085416  -14.298955
Ag    2.042708   -4.085416  -10.213540
Ag    2.042708   -4.085416   -6.128124
Ag    2.042708   -4.085416   -2.042708
Ag    2.042708   -4.085416    2.042708
Ag    2.042708   -4.085416    6.128124
Ag    2.042708   -4.085416   10.213540
Ag    2.042708   -4.085416   14.298955
Ag    2.042708   -4.085416   18.384371
Ag    2.042708   -4.085416   22.469787
Ag    2.042708   -0.000000  -22.469787
Ag    2.042708   -0.000000  -18.384371
Ag    2.042708   -0.000000  -14.298955
Ag    2.042708   -0.000000  -10.213540
Ag    2.042708   -0.000000   -6.128124
Ag    2.042708   -0.000000   -2.042708
Ag    2.042708    0.000000    2.042708
Ag    2.042708    0.000000    6.128124
Ag    2.042708    0.000000   10.213540
Ag    2.042708    0.000000   14.298955
Ag    2.042708    0.000000   18.384371
Ag    2.042708    0.000000   22.469787
Ag    2.042708    4.085416  -22.469787
Ag    2.042708    4.085416  -18.384371
Ag    2.042708    4.085416  -14.298955
Ag    2.042708    4.085416  -10.213540
Ag    2.042708    4.085416   -6.128124
Ag    2.042708    4.085416   -2.042708
Ag    2.042708    4.085416    2.042708
Ag    2.042708    4.085416    6.128124
Ag    2.042708    4.085416   10.213540
Ag    2.042708    4.085416   14.298955
Ag    2.042708    4.085416   18.384371
Ag    2.042708    4.085416   22.469787
Ag    2.042708    8.170832  -22.469787
Ag    2.042708    8.170832  -18.384371
Ag    2.042708    8.170832  -14.298955
Ag    2.042708    8.170832  -10.213540
Ag    2.042708    8.170832   -6.128124
Ag    2.042708    8.170832   -2.042708
Ag    2.042708    8.170832    2.042708
Ag    2.042708    8.170832    6.128124
Ag    2.042708    8.170832   10.213540
Ag    2.042708    8.170832   14.298955
Ag    2.042708    8.170832   18.384371
Ag    2.042708    8.170832   22.469787
Ag    2.042708   12.256248  -18.384371
Ag    2.042708   12.256248  -14.298955
Ag    2.042708   12.256248  -10.213540
Ag    2.042708   12.256248   -6.128124
Ag    2.042708   12.256248   -2.042708
Ag    2.042708   12.256248    2.042708
Ag    2.042708   12.256248    6.128124
Ag    2.042708   12.256248   10.213540
Ag    2.042708   12.256248   14.298955
Ag    2.042708   12.256248   18.384371
Ag    2.042708   16.341663  -14.298955
Ag    2.042708   16.341663  -10.213540
Ag    2.042708   16.341663   -6.128124
Ag    2.042708   16.341663   -2.042708
Ag    2.042708   16.341663    2.042708
Ag    2.042708   16.341663    6.128124
Ag    2.042708   16.341663   10.213540
Ag    2.042708   16.341663   14.298955
Ag    2.042708   20.427079  -10.213540
Ag    2.042708   20.427079   -6.128124
Ag    2.042708   20.427079   -2.042708
Ag    2.042708   20.427079    2.042708
Ag    2.042708   20.427079    6.128124
Ag    2.042708   20.427079   10.213540
Ag    6.128124  -20.427079  -10.213540
Ag    6.128124  -20.427079   -6.128124
Ag    6.128124  -20.427079   -2.042708
Ag    6.128124  -20.427079    2.042708
Ag    6.128124  -20.427079    6.128124
Ag    6.128124  -20.427079   10.213540
Ag    6.128124  -16.341663  -14.298955
Ag    6.128124  -16.341663  -10.213540
Ag    6.128124  -16.341663   -6.128124
Ag    6.128124  -16.341663   -2.042708
Ag    6.128124  -16.341663    2.042708
Ag    6.128124  -16.341663    6.128124
Ag    6.128124  -16.341663   10.213540
Ag    6.128124  -16.341663   14.298955
Ag    6.128124  -12.256248  -18.384371
Ag    6.128124  -12.256248  -14.298955
Ag    6.128124  -12.256248  -10.213540
Ag    6.128124  -12.256248   -6.128124
Ag    6.128124  -12.256248   -2.042708
Ag    6.128124  -12.256248    2.042708
Ag    6.128124  -12.256248    6.128124
Ag    6.128124  -12.256248   10.213540
Ag    6.128124  -12.256248   14.298955
Ag    6.128124  -12.256248   18.384371
Ag    6.128124   -8.170832  -22.469787
Ag    6.128124   -8.170832  -18.384371
Ag    6.128124   -8.170832  -14.298955
Ag    6.128124   -8.170832  -10.213540
Ag    6.128124   -8.170832   -6.128124
Ag    6.128124   -8.170832   -2.042708
Ag    6.128124   -8.170832    2.042708
Ag    6.128124   -8.170832    6.128124
Ag    6.128124   -8.170832   10.213540
Ag    6.128124   -8.170832   14.298955
Ag    6.128124   -8.170832   18.384371
Ag    6.128124   -8.170832   22.469787
Ag    6.128124   -4.085416  -22.469787
Ag    6.128124   -4.085416  -18.384371
Ag    6.128124   -4.085416  -14.298955
Ag    6.128124   -4.085416  -10.213540
Ag    6.128124   -4.085416   -6.128124
Ag    6.128124   -4.085416   -2.042708
Ag    6.128124   -4.085416    2.042708
Ag    6.128124   -4.085416    6.128124
Ag    6.128124   -4.085416   10.213540
Ag    6.128124   -4.085416   14.298955
Ag    6.128124   -4.085416   18.384371
Ag    6.128124   -4.085416   22.469787
Ag    6.128124   -0.000000  -22.469787
Ag    6.128124   -0.000000  -18.384371
Ag    6.128124   -0.000000  -14.298955
Ag    6.128124   -0.000000  -10.213540
Ag    6.128124   -0.000000   -6.128124
Ag    6.128124   -0.000000   -2.042708
Ag    6.128124    0.000000    2.042708
Ag    6.128124    0.000000    6.128124
Ag    6.128124    0.000000   10.213540
Ag    6.128124    0.000000   14.298955
Ag    6.128124    0.000000   18.384371
Ag    6.128124    0.000000   22.469787
Ag    6.128124    4.085416  -22.469787
Ag    6.128124    4.085416  -18.384371
Ag    6.128124    4.085416  -14.298955
Ag    6.128124    4.085416  -10.213540
Ag    6.128124    4.085416   -6.128124
Ag    6.128124    4.085416   -2.042708
Ag    6.128124    4.085416    2.042708
Ag    6.128124    4.085416    6.128124
Ag    6.128124    4.085416   10.213540
Ag    6.128124    4.085416   14.298955
Ag    6.128124    4.085416   18.384371
Ag    6.128124    4.085416   22.469787
Ag    6.128124    8.170832  -22.469787
Ag    6.128124    8.170832  -18.384371
Ag    6.128124    8.170832  -14.298955
Ag    6.128124    8.170832  -10.213540
Ag    6.128124    8.170832   -6.128124
Ag    6.128124    8.170832   -2.042708
Ag    6.128124    8.170832    2.042708
Ag    6.128124    8.170832    6.128124
Ag    6.128124    8.170832   10.213540
Ag    6.128124    8.170832   14.298955
Ag    6.128124    8.170832   18.384371
Ag    6.128124    8.170832   22.469787
Ag    6.128124   12.256248  -18.384371
Ag    6.128124   12.256248  -14.298955
Ag    6.128124   12.256248  -10.213540
Ag    6.128124   12.256248   -6.128124
Ag    6.128124   12.256248   -2.042708
Ag    6.128124   12.256248    2.042708
Ag    6.128124   12.256248    6.128124
Ag    6.128124   12.256248   10.213540
Ag    6.128124   12.256248   14.298955
Ag    6.128124   12.256248   18.384371
Ag    6.128124   16.341663  -14.298955
Ag    6.128124   16.341663  -10.213540
Ag    6.128124   16.341663   -6.128124
Ag    6.128124   16.341663   -2.042708
Ag    6.128124   16.341663    2.042708
Ag    6.128124   16.341663    6.128124
Ag    6.128124   16.341663   10.213540
Ag    6.128124   16.341663   14.298955
Ag    6.128124   20.427079  -10.213540
Ag    6.128124   20.427079   -6.128124
Ag    6.128124   20.427079   -2.042708
Ag    6.128124   20.427079    2.042708
Ag    6.128124   20.427079    6.128124
Ag    6.128124   20.427079   10.213540
Ag   10.213540  -20.427079  -10.213540
Ag   10.213540  -20.427079   -6.128124
Ag   10.213540  -20.427079   -2.042708
Ag   10.213540  -20.427079    2.042708
Ag   10.213540  -20.427079    6.128124
Ag   10.213540  -20.427079   10.213540
Ag   10.213540  -16.341663  -14.298955
Ag   10.213540  -16.341663  -10.213540
Ag   10.213540  -16.341663   -6.128124
Ag   10.213540  -16.341663   -2.042708
Ag   10.213540  -16.341663    2.042708
Ag   10.213540  -16.341663    6.128124
Ag   10.213540  -16.341663   10.213540
Ag   10.213540  -16.341663   14.298955
Ag   10.213540  -12.256248  -18.384371
Ag   10.213540  -12.256248  -14.298955
Ag   10.213540  -12.256248  -10.213540
Ag   10.213540  -12.256248   -6.128124
Ag   10.213540  -12.256248   -2.042708
Ag   10.213540  -12.256248    2.042708
Ag   10.213540  -12.256248    6.128124
Ag   10.213540  -12.256248   10.213540
Ag   10.213540  -12.256248   14.298955
Ag   10.213540  -12.256248   18.384371
Ag   10.213540   -8.170832  -22.469787
Ag   10.213540   -8.170832  -18.384371
Ag   10.213540   -8.170832  -14.298955
Ag   10.213540   -8.170832  -10.213540
Ag   10.213540   -8.170832   -6.128124
Ag   10.213540   -8.170832   -2.042708
Ag   10.213540   -8.170832    2.042708
Ag   10.213540   -8.170832    6.128124
Ag   10.213540   -8.170832   10.213540
Ag   10.213540   -8.170832   14.298955
Ag   10.213540   -8.170832   18.384371
Ag   10.213540   -8.170832   22.469787
Ag   10.213540   -4.085416  -22.469787
Ag   10.213540   -4.085416  -18.384371
Ag   10.213540   -4.085416  -14.298955
Ag   10.213540   -4.085416  -10.213540
Ag   10.213540   -4.085416   -6.128124
Ag   10.213540   -4.085416   -2.042708
Ag   10.213540   -4.085416    2.042708
Ag   10.213540   -4.085416    6.128124
Ag   10.213540   -4.085416   10.213540
Ag   10.213540   -4.085416   14.298955
Ag   10.213540   -4.085416   18.384371
Ag   10.213540   -4.085416   22.469787
Ag   10.213540   -0.000000  -22.469787
Ag   10.213540   -0.000000  -18.384371
Ag   10.213540   -0.000000  -14.298955
Ag   10.213540   -0.000000  -10.213540
Ag   10.213540   -0.000000   -6.128124
Ag   10.213540   -0.000000   -2.042708
Ag   10.213540    0.000000    2.042708
Ag   10.213540    0.000000    6.128124
Ag   10.213540    0.000000   10.213540
Ag   10.213540    0.000000   14.298955
Ag   10.213540    0.000000   18.384371
Ag   10.213540    0.000000   22.469787
Ag   10.213540    4.085416  -22.469787
Ag   10.213540    4.085416  -18.384371
Ag   10.213540    4.085416  -14.298955
Ag   10.213540    4.085416  -10.213540
Ag   10.213540    4.085416   -6.128124
Ag   10.213540    4.085416   -2.042708
Ag   10.213540    4.085416    2.042708
Ag   10.213540    4.085416    6.128124
Ag   10.213540    4.085416   10.213540
Ag   10.213540    4.085416   14.298955
Ag   10.213540    4.085416   18.384371
Ag   10.213540    4.085416   22.469787
Ag   10.213540    8.170832  -22.469787
Ag   10.213540    8.170832  -18.384371
Ag   10.213540    8.170832  -14.298955
Ag   10.213540    8.170832  -10.213540
Ag   10.213540    8.170832   -6.128124
Ag   10.213540    8.170832   -2.042708
Ag   10.213540    8.170832    2.042708
Ag   10.213540    8.170832    6.128124
Ag   10.213540    8.170832   10.213540
Ag   10.213540    8.170832   14.298955
Ag   10.213540    8.170832   18.384371
Ag   10.213540    8.170832   22.469787
Ag   10.213540   12.256248  -18.384371
Ag   10.213540   12.256248  -14.298955
Ag   10.213540   12.256248  -10.213540
Ag   10.213540   12.256248   -6.128124
Ag   10.213540   12.256248   -2.042708
Ag   10.213540   12.256248    2.042708
Ag   10.213540   12.256248    6.128124
Ag   10.213540   12.256248   10.213540
Ag   10.213540   12.256248   14.298955
Ag   10.213540   12.256248   18.384371
Ag   10.213540   16.341663  -14.298955
Ag   10.213540   16.341663  -10.213540
Ag   10.213540   16.341663   -6.128124
Ag   10.213540   16.341663   -2.042708
Ag   10.213540   16.341663    2.042708
Ag   10.213540   16.341663    6.128124
Ag   10.213540   16.341663   10.213540
Ag   10.213540   16.341663   14.298955
Ag   10.213540   20.427079  -10.213540
Ag   10.213540   20.427079   -6.128124
Ag   10.213540   20.427079   -2.042708
Ag   10.213540   20.427079    2.042708
Ag   10.213540   20.427079    6.128124
Ag   10.213540   20.427079   10.213540
Ag   14.298955  -16.341663  -14.298955
Ag   14.298955  -16.341663  -10.213540
Ag   14.298955  -16.341663   -6.128124
Ag   14.298955  -16.341663   -2.042708
Ag   14.298955  -16.341663    2.042708
Ag   14.298955  -16.341663    6.128124
Ag   14.298955  -16.341663   10.213540
Ag   14.298955  -16.341663   14.298955
Ag   14.298955  -12.256248  -18.384371
Ag   14.298955  -12.256248  -14.298955
Ag   14.298955  -12.256248  -10.213540
Ag   14.298955  -12.256248   -6.128124
Ag   14.298955  -12.256248   -2.042708
Ag   14.298955  -12.256248    2.042708
Ag   14.298955  -12.256248    6.128124
Ag   14.298955  -12.256248   10.213540
Ag   14.298955  -12.256248   14.298955
Ag   14.298955  -12.256248   18.384371
Ag   14.298955   -8.170832  -18.384371
Ag   14.298955   -8.170832  -14.298955
Ag   14.298955   -8.170832  -10.213540
Ag   14.298955   -8.170832   -6.128124
Ag   14.298955   -8.170832   -2.042708
Ag   14.298955   -8.170832    2.042708
Ag   14.298955   -8.170832    6.128124
Ag   14.298955   -8.170832   10.213540
Ag   14.298955   -8.170832   14.298955
Ag   14.298955   -8.170832   18.384371
Ag   14.298955   -4.085416  -18.384371
Ag   14.298955   -4.085416  -14.298955
Ag   14.298955   -4.085416  -10.213540
Ag   14.298955   -4.085416   -6.128124
Ag   14.298955   -4.085416   -2.042708
Ag   14.298955   -4.085416    2.042708
Ag   14.298955   -4.085416    6.128124
Ag   14.298955   -4.085416   10.213540
Ag   14.298955   -4.085416   14.298955
Ag   14.298955   -4.085416   18.384371
Ag   14.298955   -0.000000  -18.384371
Ag   14.298955   -0.000000  -14.298955
Ag   14.298955   -0.000000  -10.213540
Ag   14.298955   -0.000000   -6.128124
Ag   14.298955   -0.000000   -2.042708
Ag   14.298955    0.000000    2.042708
Ag   14.298955    0.000000    6.128124
Ag   14.298955    0.000000   10.213540
Ag   14.298955    0.000000   14.298955
Ag   14.298955    0.000000   18.384371
Ag   14.298955    4.085416  -18.384371
Ag   14.298955    4.085416  -14.298955
Ag   14.298955    4.085416  -10.213540
Ag   14.298955    4.085416   -6.128124
Ag   14.298955    4.085416   -2.042708
Ag   14.298955    4.085416    2.042708
Ag   14.298955    4.085416    6.128124
Ag   14.298955    4.085416   10.213540
Ag   14.298955    4.085416   14.298955
Ag   14.298955    4.085416   18.384371
Ag   14.298955    8.170832  -18.384371
Ag   14.298955    8.170832  -14.298955
Ag   14.298955    8.170832  -10.213540
Ag   14.298955    8.170832   -6.128124
Ag   14.298955    8.170832   -2.042708
Ag   14.298955    8.170832    2.042708
Ag   14.298955    8.170832    6.128124
Ag   14.298955    8.170832   10.213540
Ag   14.298955    8.170832   14.298955
Ag   14.298955    8.170832   18.384371
Ag   14.298955   12.256248  -18.384371
Ag   14.298955   12.256248  -14.298955
Ag   14.298955   12.256248  -10.213540
Ag   14.298955   12.256248   -6.128124
Ag   14.298955   12.256248   -2.042708
Ag   14.298955   12.256248    2.042708
Ag   14.298955   12.256248    6.128124
Ag   14.298955   12.256248   10.213540
Ag   14.298955   12.256248   14.298955
Ag   14.298955   12.256248   18.384371
Ag   14.298955   16.341663  -14.298955
Ag   14.298955   16.341663  -10.213540
Ag   14.298955   16.341663   -6.128124
Ag   14.298955   16.341663   -2.042708
Ag   14.298955   16.341663    2.042708
Ag   14.298955   16.341663    6.128124
Ag   14.298955   16.341663   10.213540
Ag   14.298955   16.341663   14.298955
Ag   18.384371  -12.256248  -14.298955
Ag   18.384371  -12.256248  -10.213540
Ag   18.384371  -12.256248   -6.128124
Ag   18.384371  -12.256248   -2.042708
Ag   18.384371  -12.256248    2.042708
Ag   18.384371  -12.256248    6.128124
Ag   18.384371  -12.256248   10.213540
Ag   18.384371  -12.256248   14.298955
Ag   18.384371   -8.170832  -14.298955
Ag   18.384371   -8.170832  -10.213540
Ag   18.384371   -8.170832   -6.128124
Ag   18.384371   -8.170832   -2.042708
Ag   18.384371   -8.170832    2.042708
Ag   18.384371   -8.170832    6.128124
Ag   18.384371   -8.170832   10.213540
Ag   18.384371   -8.170832   14.298955
Ag   18.384371   -4.085416  -14.298955
Ag   18.384371   -4.085416  -10.213540
Ag   18.384371   -4.085416   -6.128124
Ag   18.384371   -4.085416   -2.042708
Ag   18.384371   -4.085416    2.042708
Ag   18.384371   -4.085416    6.128124
Ag   18.384371   -4.085416   10.213540
Ag   18.384371   -4.085416   14.298955
Ag   18.384371   -0.000000  -14.298955
Ag   18.384371   -0.000000  -10.213540
Ag   18.384371   -0.000000   -6.128124
Ag   18.384371   -0.000000   -2.042708
Ag   18.384371    0.000000    2.042708
Ag   18.384371    0.000000    6.128124
Ag   18.384371    0.000000   10.213540
Ag   18.384371    0.000000   14.298955
Ag   18.384371    4.085416  -14.298955
Ag   18.384371    4.085416  -10.213540
Ag   18.384371    4.085416   -6.128124
Ag   18.384371    4.085416   -2.042708
Ag   18.384371    4.085416    2.042708
Ag   18.384371    4.085416    6.128124
Ag   18.384371    4.085416   10.213540
Ag   18.384371    4.085416   14.298955
Ag   18.384371    8.170832  -14.298955
Ag   18.384371    8.170832  -10.213540
Ag   18.384371    8.170832   -6.128124
Ag   18.384371    8.170832   -2.042708
Ag   18.384371    8.170832    2.042708
Ag   18.384371    8.170832    6.128124
Ag   18.384371    8.170832   10.213540
Ag   18.384371    8.170832   14.298955
Ag   18.384371   12.256248  -14.298955
Ag   18.384371   12.256248  -10.213540
Ag   18.384371   12.256248   -6.128124
Ag   18.384371   12.256248   -2.042708
Ag   18.384371   12.256248    2.042708
Ag   18.384371   12.256248    6.128124
Ag   18.384371   12.256248   10.213540
Ag   18.384371   12.256248   14.298955
Ag   22.469787   -8.170832  -10.213540
Ag   22.469787   -8.170832   -6.128124
Ag   22.469787   -8.170832   -2.042708
Ag   22.469787   -8.170832    2.042708
Ag   22.469787   -8.170832    6.128124
Ag   22.469787   -8.170832   10.213540
Ag   22.469787   -4.085416  -10.213540
Ag   22.469787   -4.085416   -6.128124
Ag   22.469787   -4.085416   -2.042708
Ag   22.469787   -4.085416    2.042708
Ag   22.469787   -4.085416    6.128124
Ag   22.469787   -4.085416   10.213540
Ag   22.469787   -0.000000  -10.213540
Ag   22.469787   -0.000000   -6.128124
Ag   22.469787   -0.000000   -2.042708
Ag   22.469787    0.000000    2.042708
Ag   22.469787    0.000000    6.128124
Ag   22.469787    0.000000   10.213540
Ag   22.469787    4.085416  -10.213540
Ag   22.469787    4.085416   -6.128124
Ag   22.469787    4.085416   -2.042708
Ag   22.469787    4.085416    2.042708
Ag   22.469787    4.085416    6.128124
Ag   22.469787    4.085416   10.213540
Ag   22.469787    8.170832  -10.213540
Ag   22.469787    8.170832   -6.128124
Ag   22.469787    8.170832   -2.042708
Ag   22.469787    8.170832    2.042708
Ag   22.469787    8.170832    6.128124
Ag   22.469787    8.170832   10.213540
Ag  -22.469787  -10.213540   -8.170832
Ag  -22.469787  -10.213540   -4.085416
Ag  -22.469787  -10.213540    0.000000
Ag  -22.469787  -10.213540    4.085416
Ag  -22.469787  -10.213540    8.170832
Ag  -22.469787   -6.128124   -8.170832
Ag  -22.469787   -6.128124   -4.085416
Ag  -22.469787   -6.128124    0.000000
Ag  -22.469787   -6.128124    4.085416
Ag  -22.469787   -6.128124    8.170832
Ag  -22.469787   -2.042708   -8.170832
Ag  -22.469787   -2.042708   -4.085416
Ag  -22.469787   -2.042708    0.000000
Ag  -22.469787   -2.042708    4.085416
Ag  -22.469787   -2.042708    8.170832
Ag  -22.469787    2.042708   -8.170832
Ag  -22.469787    2.042708   -4.085416
Ag  -22.469787    2.042708    0.000000
Ag  -22.469787    2.042708    4.085416
Ag  -22.469787    2.042708    8.170832
Ag  -22.469787    6.128124   -8.170832
Ag  -22.469787    6.128124   -4.085416
Ag  -22.469787    6.128124    0.000000
Ag  -22.469787    6.128124    4.085416
Ag  -22.469787    6.128124    8.170832
Ag  -22.469787   10.213540   -8.170832
Ag  -22.469787   10.213540   -4.085416
Ag  -22.469787   10.213540    0.000000
Ag  -22.469787   10.213540    4.085416
Ag  -22.469787   10.213540    8.170832
Ag  -18.384371  -14.298955  -12.256248
Ag  -18.384371  -14.298955   -8.170832
Ag  -18.384371  -14.298955   -4.085416
Ag  -18.384371  -14.298955    0.000000
Ag  -18.384371  -14.298955    4.085416
Ag  -18.384371  -14.298955    8.170832
Ag  -18.384371  -14.298955   12.256248
Ag  -18.384371  -10.213540  -12.256248
Ag  -18.384371  -10.213540   -8.170832
Ag  -18.384371  -10.213540   -4.085416
Ag  -18.384371  -10.213540    0.000000
Ag  -18.384371  -10.213540    4.085416
Ag  -18.384371  -10.213540    8.170832
Ag  -18.384371  -10.213540   12.256248
Ag  -18.384371   -6.128124  -12.256248
Ag  -18.384371   -6.128124   -8.170832
Ag  -18.384371   -6.128124   -4.085416
Ag  -18.384371   -6.128124    0.000000
Ag  -18.384371   -6.128124    4.085416
Ag  -18.384371   -6.128124    8.170832
Ag  -18.384371   -6.128124   12.256248
Ag  -18.384371   -2.042708  -12.256248
Ag  -18.384371   -2.042708   -8.170832
Ag  -18.384371   -2.042708   -4.085416
Ag  -18.384371   -2.042708    0.000000
Ag  -18.384371   -2.042708    4.085416
Ag  -18.384371   -2.042708    8.170832
Ag  -18.384371   -2.042708   12.256248
Ag  -18.384371    2.042708  -12.256248
Ag  -18.384371    2.042708   -8.170832
Ag  -18.384371    2.042708   -4.085416
Ag  -18.384371    2.042708    0.000000
Ag  -18.384371    2.042708    4.085416
Ag  -18.384371    2.042708    8.170832
Ag  -18.384371    2.042708   12.256248
Ag  -18.384371    6.128124  -12.256248
Ag  -18.384371    6.128124   -8.170832
Ag  -18.384371    6.128124   -4.085416
Ag  -18.384371    6.128124    0.000000
Ag  -18.384371    6.128124    4.085416
Ag  -18.384371    6.128124    8.170832
Ag  -18.384371    6.128124   12.256248
Ag  -18.384371   10.213540  -12.256248
Ag  -18.384371   10.213540   -8.170832
Ag  -18.384371   10.213540   -4.085416
Ag  -18.384371   10.213540    0.000000
Ag  -18.384371   10.213540    4.085416
Ag  -18.384371   10.213540    8.170832
Ag  -18.384371   10.213540   12.256248
Ag  -18.384371   14.298955  -12.256248
Ag  -18.384371   14.298955   -8.170832
Ag  -18.384371   14.298955   -4.085416
Ag  -18.384371   14.298955    0.000000
Ag  -18.384371   14.298955    4.085416
Ag  -18.384371   14.298955    8.170832
Ag  -18.384371   14.298955   12.256248
Ag  -14.298955  -18.384371  -12.256248
Ag  -14.298955  -18.384371   -8.170832
Ag  -14.298955  -18.384371   -4.085416
Ag  -14.298955  -18.384371    0.000000
Ag  -14.298955  -18.384371    4.085416
Ag  -14.298955  -18.384371    8.170832
Ag  -14.298955  -18.384371   12.256248
Ag  -14.298955  -14.298955  -16.341663
Ag  -14.298955  -14.298955  -12.256248
Ag  -14.298955  -14.298955   -8.170832
Ag  -14.298955  -14.298955   -4.085416
Ag  -14.298955  -14.298955    0.000000
Ag  -14.298955  -14.298955    4.085416
Ag  -14.298955  -14.298955    8.170832
Ag  -14.298955  -14.298955   12.256248
Ag  -14.298955  -14.298955   16.341663
Ag  -14.298955  -10.213540  -16.341663
Ag  -14.298955  -10.213540  -12.256248
Ag  -14.298955  -10.213540   -8.170832
Ag  -14.298955  -10.213540   -4.085416
Ag  -14.298955  -10.213540    0.000000
Ag  -14.298955  -10.213540    4.085416
Ag  -14.298955  -10.213540    8.170832
Ag  -14.298955  -10.213540   12.256248
Ag  -14.298955  -10.213540   16.341663
Ag  -14.298955   -6.128124  -16.341663
Ag  -14.298955   -6.128124  -12.256248
Ag  -14.298955   -6.128124   -8.170832
Ag  -14.298955   -6.128124   -4.085416
Ag  -14.298955   -6.128124    0.000000
Ag  -14.298955   -6.128124    4.085416
Ag  -14.298955   -6.128124    8.170832
Ag  -14.298955   -6.128124   12.256248
Ag  -14.298955   -6.128124   16.341663
Ag  -14.298955   -2.042708  -16.341663
Ag  -14.298955   -2.042708  -12.256248
Ag  -14.298955   -2.042708   -8.170832
Ag  -14.298955   -2.042708   -4.085416
Ag  -14.298955   -2.042708    0.000000
Ag  -14.298955   -2.042708    4.085416
Ag  -14.298955   -2.042708    8.170832
Ag  -14.298955   -2.042708   12.256248
Ag  -14.298955   -2.042708   16.341663
Ag  -14.298955    2.042708  -16.341663
Ag  -14.298955    2.042708  -12.256248
Ag  -14.298955    2.042708   -8.170832
Ag  -14.298955    2.042708   -4.085416
Ag  -14.298955    2.042708    0.000000
Ag  -14.298955    2.042708    4.085416
Ag  -14.298955    2.042708    8.170832
Ag  -14.298955    2.042708   12.256248
Ag  -14.298955    2.042708   16.341663
Ag  -14.298955    6.128124  -16.341663
Ag  -14.298955    6.128124  -12.256248
Ag  -14.298955    6.128124   -8.170832
Ag  -14.298955    6.128124   -4.085416
Ag  -14.298955    6.128124    0.000000
Ag  -14.298955    6.128124    4.085416
Ag  -14.298955    6.128124    8.170832
Ag  -14.298955    6.128124   12.256248
Ag  -14.298955    6.128124   16.341663
Ag  -14.298955   10.213540  -16.341663
Ag  -14.298955   10.213540  -12.256248
Ag  -14.298955   10.213540   -8.170832
Ag  -14.298955   10.213540   -4.085416
Ag  -14.298955   10.213540    0.000000
Ag  -14.298955   10.213540    4.085416
Ag  -14.298955   10.213540    8.170832
Ag  -14.298955   10.213540   12.256248
Ag  -14.298955   10.213540   16.341663
Ag  -14.298955   14.298955  -16.341663
Ag  -14.298955   14.298955  -12.256248
Ag  -14.298955   14.298955   -8.170832
Ag  -14.298955   14.298955   -4.085416
Ag  -14.298955   14.298955    0.000000
Ag  -14.298955   14.298955    4.085416
Ag  -14.298955   14.298955    8.170832
Ag  -14.298955   14.298955   12.256248
Ag  -14.298955   14.298955   16.341663
Ag  -14.298955   18.384371  -12.256248
Ag  -14.298955   18.384371   -8.170832
Ag  -14.298955   18.384371   -4.085416
Ag  -14.298955   18.384371    0.000000
Ag  -14.298955   18.384371    4.085416
Ag  -14.298955   18.384371    8.170832
Ag  -14.298955   18.384371   12.256248
Ag  -10.213540  -22.469787   -8.170832
Ag  -10.213540  -22.469787   -4.085416
Ag  -10.213540  -22.469787    0.000000
Ag  -10.213540  -22.469787    4.085416
Ag  -10.213540  -22.469787    8.170832
Ag  -10.213540  -18.384371  -12.256248
Ag  -10.213540  -18.384371   -8.170832
Ag  -10.213540  -18.384371   -4.085416
Ag  -10.213540  -18.384371    0.000000
Ag  -10.213540  -18.384371    4.085416
Ag  -10.213540  -18.384371    8.170832
Ag  -10.213540  -18.384371   12.256248
Ag  -10.213540  -14.298955  -16.341663
Ag  -10.213540  -14.298955  -12.256248
Ag  -10.213540  -14.298955   -8.170832
Ag  -10.213540  -14.298955   -4.085416
Ag  -10.213540  -14.298955    0.000000
Ag  -10.213540  -14.298955    4.085416
Ag  -10.213540  -14.298955    8.170832
Ag  -10.213540  -14.298955   12.256248
Ag  -10.213540  -14.298955   16.341663
Ag  -10.213540  -10.213540  -20.427079
Ag  -10.213540  -10.213540  -16.341663
Ag  -10.213540  -10.213540  -12.256248
Ag  -10.213540  -10.213540   -8.170832
Ag  -10.213540  -10.213540   -4.085416
Ag  -10.213540  -10.213540    0.000000
Ag  -10.213540  -10.213540    4.085416
Ag  -10.213540  -10.213540    8.170832
Ag  -10.213540  -10.213540   12.256248
Ag  -10.213540  -10.213540   16.341663
Ag  -10.213540  -10.213540   20.427079
Ag  -10.213540   -6.128124  -20.427079
Ag  -10.213540   -6.128124  -16.341663
Ag  -10.213540   -6.128124  -12.256248
Ag  -10.213540   -6.128124   -8.170832
Ag  -10.213540   -6.128124   -4.085416
Ag  -10.213540   -6.128124    0.000000
Ag  -10.213540   -6.128124    4.085416
Ag  -10.213540   -6.128124    8.170832
Ag  -10.213540   -6.128124   12.256248
Ag  -10.213540   -6.128124   16.341663
Ag  -10.213540   -6.128124   20.427079
Ag  -10.213540   -2.042708  -20.427079
Ag  -10.213540   -2.042708  -16.341663
Ag  -10.213540   -2.042708  -12.256248
Ag  -10.213540   -2.042708   -8.170832
Ag  -10.213540   -2.042708   -4.085416
Ag  -10.213540   -2.042708    0.000000
Ag  -10.213540   -2.042708    4.085416
Ag  -10.213540   -2.042708    8.170832
Ag  -10.213540   -2.042708   12.256248
Ag  -10.213540   -2.042708   16.341663
Ag  -10.213540   -2.042708   20.427079
Ag  -10.213540    2.042708  -20.427079
Ag  -10.213540    2.042708  -16.341663
Ag  -10.213540    2.042708  -12.256248
Ag  -10.213540    2.042708   -8.170832
Ag  -10.213540    2.042708   -4.085416
Ag  -10.213540    2.042708    0.000000
Ag  -10.213540    2.042708    4.085416
Ag  -10.213540    2.042708    8.170832
Ag  -10.213540    2.042708   12.256248
Ag  -10.213540    2.042708   16.341663
Ag  -10.213540    2.042708   20.427079
Ag  -10.213540    6.128124  -20.427079
Ag  -10.213540    6.128124  -16.341663
Ag  -10.213540    6.128124  -12.256248
Ag  -10.213540    6.128124   -8.170832
Ag  -10.213540    6.128124   -4.085416
Ag  -10.213540    6.128124    0.000000
Ag  -10.213540    6.128124    4.085416
Ag  -10.213540    6.128124    8.170832
Ag  -10.213540    6.128124   12.256248
Ag  -10.213540    6.128124   16.341663
Ag  -10.213540    6.128124   20.427079
Ag  -10.213540   10.213540  -20.427079
Ag  -10.213540   10.213540  -16.341663
Ag  -10.213540   10.213540  -12.256248
Ag  -10.213540   10.213540   -8.170832
Ag  -10.213540   10.213540   -4.085416
Ag  -10.213540   10.213540    0.000000
Ag  -10.213540   10.213540    4.085416
Ag  -10.213540   10.213540    8.170832
Ag  -10.213540   10.213540   12.256248
Ag  -10.213540   10.213540   16.341663
Ag  -10.213540   10.213540   20.427079
Ag  -10.213540   14.298955  -16.341663
Ag  -10.213540   14.298955  -12.256248
Ag  -10.213540   14.298955   -8.170832
Ag  -10.213540   14.298955   -4.085416
Ag  -10.213540   14.298955    0.000000
Ag  -10.213540   14.298955    4.085416
Ag  -10.213540   14.298955    8.170832
Ag  -10.213540   14.298955   12.256248
Ag  -10.213540   14.298955   16.341663
Ag  -10.213540   18.384371  -12.256248
Ag  -10.213540   18.384371   -8.170832
Ag  -10.213540   18.384371   -4.085416
Ag  -10.213540   18.384371    0.000000
Ag  -10.213540   18.384371    4.085416
Ag  -10.213540   18.384371    8.170832
Ag  -10.213540   18.384371   12.256248
Ag  -10.213540   22.469787   -8.170832
Ag  -10.213540   22.469787   -4.085416
Ag  -10.213540   22.469787    0.000000
Ag  -10.213540   22.469787    4.085416
Ag  -10.213540   22.469787    8.170832
Ag   -6.128124  -22.469787   -8.170832
Ag   -6.128124  -22.469787   -4.085416
Ag   -6.128124  -22.469787    0.000000
Ag   -6.128124  -22.469787    4.085416
Ag   -6.128124  -22.469787    8.170832
Ag   -6.128124  -18.384371  -12.256248
Ag   -6.128124  -18.384371   -8.170832
Ag   -6.128124  -18.384371   -4.085416
Ag   -6.128124  -18.384371    0.000000
Ag   -6.128124  -18.384371    4.085416
Ag   -6.128124  -18.384371    8.170832
Ag   -6.128124  -18.384371   12.256248
Ag   -6.128124  -14.298955  -16.341663
Ag   -6.128124  -14.298955  -12.256248
Ag   -6.128124  -14.298955   -8.170832
Ag   -6.128124  -14.298955   -4.085416
Ag   -6.128124  -14.298955    0.000000
Ag   -6.128124  -14.298955    4.085416
Ag   -6.128124  -14.298955    8.170832
Ag   -6.128124  -14.298955   12.256248
Ag   -6.128124  -14.298955   16.341663
Ag   -6.128124  -10.213540  -20.427079
Ag   -6.128124  -10.213540  -16.341663
Ag   -6.128124  -10.213540  -12.256248
Ag   -6.128124  -10.213540   -8.170832
Ag   -6.128124  -10.213540   -4.085416
Ag   -6.128124  -10.213540    0.000000
Ag   -6.128124  -10.213540    4.085416
Ag   -6.128124  -10.213540    8.170832
Ag   -6.128124  -10.213540   12.256248
Ag   -6.128124  -10.213540   16.341663
Ag   -6.128124  -10.213540   20.427079
Ag   -6.128124   -6.128124  -20.427079
Ag   -6.128124   -6.128124  -16.341663
Ag   -6.128124   -6.128124  -12.256248
Ag   -6.128124   -6.128124   -8.170832
Ag   -6.128124   -6.128124   -4.085416
Ag   -6.128124   -6.128124    0.000000
Ag   -6.128124   -6.128124    4.085416
Ag   -6.128124   -6.128124    8.170832
Ag   -6.128124   -6.128124   12.256248
Ag   -6.128124   -6.128124   16.341663
Ag   -6.128124   -6.128124   20.427079
Ag   -6.128124   -2.042708  -20.427079
Ag   -6.128124   -2.042708  -16.341663
Ag   -6.128124   -2.042708  -12.256248
Ag   -6.128124   -2.042708   -8.170832
Ag   -6.128124   -2.042708   -4.085416
Ag   -6.128124   -2.042708    0.000000
Ag   -6.128124   -2.042708    4.085416
Ag   -6.128124   -2.042708    8.170832
Ag   -6.128124   -2.042708   12.256248
Ag   -6.128124   -2.042708   16.341663
Ag   -6.128124   -2.042708   20.427079
Ag   -6.128124    2.042708  -20.427079
Ag   -6.128124    2.042708  -16.341663
Ag   -6.128124    2.042708  -12.256248
Ag   -6.128124    2.042708   -8.170832
Ag   -6.128124    2.042708   -4.085416
Ag   -6.128124    2.042708    0.000000
Ag   -6.128124    2.042708    4.085416
Ag   -6.128124    2.042708    8.170832
Ag   -6.128124    2.042708   12.256248
Ag   -6.128124    2.042708   16.341663
Ag   -6.128124    2.042708   20.427079
Ag   -6.128124    6.128124  -20.427079
Ag   -6.128124    6.128124  -16.341663
Ag   -6.128124    6.128124  -12.256248
Ag   -6.128124    6.128124   -8.170832
Ag   -6.128124    6.128124   -4.085416
Ag   -6.128124    6.128124    0.000000
Ag   -6.128124    6.128124    4.085416
Ag   -6.128124    6.128124    8.170832
Ag   -6.128124    6.128124   12.256248
Ag   -6.128124    6.128124   16.341663
Ag   -6.128124    6.128124   20.427079
Ag   -6.128124   10.213540  -20.427079
Ag   -6.128124   10.213540  -16.341663
Ag   -6.128124   10.213540  -12.256248
Ag   -6.128124   10.213540   -8.170832
Ag   -6.128124   10.213540   -4.085416
Ag   -6.128124   10.213540    0.000000
Ag   -6.128124   10.213540    4.085416
Ag   -6.128124   10.213540    8.170832
Ag   -6.128124   10.213540   12.256248
Ag   -6.128124   10.213540   16.341663
Ag   -6.128124   10.213540   20.427079
Ag   -6.128124   14.298955  -16.341663
Ag   -6.128124   14.298955  -12.256248
Ag   -6.128124   14.298955   -8.170832
Ag   -6.128124   14.298955   -4.085416
Ag   -6.128124   14.298955    0.000000
Ag   -6.128124   14.298955    4.085416
Ag   -6.128124   14.298955    8.170832
Ag   -6.128124   14.298955   12.256248
Ag   -6.128124   14.298955   16.341663
Ag   -6.128124   18.384371  -12.256248
Ag   -6.128124   18.384371   -8.170832
Ag   -6.128124   18.384371   -4.085416
Ag   -6.128124   18.384371    0.000000
Ag   -6.128124   18.384371    4.085416
Ag   -6.128124   18.384371    8.170832
Ag   -6.128124   18.384371   12.256248
Ag   -6.128124   22.469787   -8.170832
Ag   -6.128124   22.469787   -4.085416
Ag   -6.128124   22.469787    0.000000
Ag   -6.128124   22.469787    4.085416
Ag   -6.128124   22.469787    8.170832
Ag   -2.042708  -22.469787   -8.170832
Ag   -2.042708  -22.469787   -4.085416
Ag   -2.042708  -22.469787    0.000000
Ag   -2.042708  -22.469787    4.085416
Ag   -2.042708  -22.469787    8.170832
Ag   -2.042708  -18.384371  -12.256248
Ag   -2.042708  -18.384371   -8.170832
Ag   -2.042708  -18.384371   -4.085416
Ag   -2.042708  -18.384371    0.000000
Ag   -2.042708  -18.384371    4.085416
Ag   -2.042708  -18.384371    8.170832
Ag   -2.042708  -18.384371   12.256248
Ag   -2.042708  -14.298955  -16.341663
Ag   -2.042708  -14.298955  -12.256248
Ag   -2.042708  -14.298955   -8.170832
Ag   -2.042708  -14.298955   -4.085416
Ag   -2.042708  -14.298955    0.000000
Ag   -2.042708  -14.298955    4.085416
Ag   -2.042708  -14.298955    8.170832
Ag   -2.042708  -14.298955   12.256248
Ag   -2.042708  -14.298955   16.341663
Ag   -2.042708  -10.213540  -20.427079
Ag   -2.042708  -10.213540  -16.341663
Ag   -2.042708  -10.213540  -12.256248
Ag   -2.042708  -10.213540   -8.170832
Ag   -2.042708  -10.213540   -4.085416
Ag   -2.042708  -10.213540    0.000000
Ag   -2.042708  -10.213540    4.085416
Ag   -2.042708  -10.213540    8.170832
Ag   -2.042708  -10.213540   12.256248
Ag   -2.042708  -10.213540   16.341663
Ag   -2.042708  -10.213540   20.427079
Ag   -2.042708   -6.128124  -20.427079
Ag   -2.042708   -6.128124  -16.341663
Ag   -2.042708   -6.128124  -12.256248
Ag   -2.042708   -6.128124   -8.170832
Ag   -2.042708   -6.128124   -4.085416
Ag   -2.042708   -6.128124    0.000000
Ag   -2.042708   -6.128124    4.085416
Ag   -2.042708   -6.128124    8.170832
Ag   -2.042708   -6.128124   12.256248
Ag   -2.042708   -6.128124   16.341663
Ag   -2.042708   -6.128124   20.427079
Ag   -2.042708   -2.042708  -20.427079
Ag   -2.042708   -2.042708  -16.341663
Ag   -2.042708   -2.042708  -12.256248
Ag   -2.042708   -2.042708   -8.170832
Ag   -2.042708   -2.042708   -4.085416
Ag   -2.042708   -2.042708    0.000000
Ag   -2.042708   -2.042708    4.085416
Ag   -2.042708   -2.042708    8.170832
Ag   -2.042708   -2.042708   12.256248
Ag   -2.042708   -2.042708   16.341663
Ag   -2.042708   -2.042708   20.427079
Ag   -2.042708    2.042708  -20.427079
Ag   -2.042708    2.042708  -16.341663
Ag   -2.042708    2.042708  -12.256248
Ag   -2.042708    2.042708   -8.170832
Ag   -2.042708    2.042708   -4.085416
Ag   -2.042708    2.042708    0.000000
Ag   -2.042708    2.042708    4.085416
Ag   -2.042708    2.042708    8.170832
Ag   -2.042708    2.042708   12.256248
Ag   -2.042708    2.042708   16.341663
Ag   -2.042708    2.042708   20.427079
Ag   -2.042708    6.128124  -20.427079
Ag   -2.042708    6.128124  -16.341663
Ag   -2.042708    6.128124  -12.256248
Ag   -2.042708    6.128124   -8.170832
Ag   -2.042708    6.128124   -4.085416
Ag   -2.042708    6.128124    0.000000
Ag   -2.042708    6.128124    4.085416
Ag   -2.042708    6.128124    8.170832
Ag   -2.042708    6.128124   12.256248
Ag   -2.042708    6.128124   16.341663
Ag   -2.042708    6.128124   20.427079
Ag   -2.042708   10.213540  -20.427079
Ag   -2.042708   10.213540  -16.341663
Ag   -2.042708   10.213540  -12.256248
Ag   -2.042708   10.213540   -8.170832
Ag   -2.042708   10.213540   -4.085416
Ag   -2.042708   10.213540    0.000000
Ag   -2.042708   10.213540    4.085416
Ag   -2.042708   10.213540    8.170832
Ag   -2.042708   10.213540   12.256248
Ag   -2.042708   10.213540   16.341663
Ag   -2.042708   10.213540   20.427079
Ag   -2.042708   14.298955  -16.341663
Ag   -2.042708   14.298955  -12.256248
Ag   -2.042708   14.298955   -8.170832
Ag   -2.042708   14.298955   -4.085416
Ag   -2.042708   14.298955    0.000000
Ag   -2.042708   14.298955    4.085416
Ag   -2.042708   14.298955    8.170832
Ag   -2.042708   14.298955   12.256248
Ag   -2.042708   14.298955   16.341663
Ag   -2.042708   18.384371  -12.256248
Ag   -2.042708   18.384371   -8.170832
Ag   -2.042708   18.384371   -4.085416
Ag   -2.042708   18.384371    0.000000
Ag   -2.042708   18.384371    4.085416
Ag   -2.042708   18.384371    8.170832
Ag   -2.042708   18.384371   12.256248
Ag   -2.042708   22.469787   -8.170832
Ag   -2.042708   22.469787   -4.085416
Ag   -2.042708   22.469787    0.000000
Ag   -2.042708   22.469787    4.085416
Ag   -2.042708   22.469787    8.170832
Ag    2.042708  -22.469787   -8.170832
Ag    2.042708  -22.469787   -4.085416
Ag    2.042708  -22.469787    0.000000
Ag    2.042708  -22.469787    4.085416
Ag    2.042708  -22.469787    8.170832
Ag    2.042708  -18.384371  -12.256248
Ag    2.042708  -18.384371   -8.170832
Ag    2.042708  -18.384371   -4.085416
Ag    2.042708  -18.384371    0.000000
Ag    2.042708  -18.384371    4.085416
Ag    2.042708  -18.384371    8.170832
Ag    2.042708  -18.384371   12.256248
Ag    2.042708  -14.298955  -16.341663
Ag    2.042708  -14.298955  -12.256248
Ag    2.042708  -14.298955   -8.170832
Ag    2.042708  -14.298955   -4.085416
Ag    2.042708  -14.298955    0.000000
Ag    2.042708  -14.298955    4.085416
Ag    2.042708  -14.298955    8.170832
Ag    2.042708  -14.298955   12.256248
Ag    2.042708  -14.298955   16.341663
Ag    2.042708  -10.213540  -20.427079
Ag    2.042708  -10.213540  -16.341663
Ag    2.042708  -10.213540  -12.256248
Ag    2.042708  -10.213540   -8.170832
Ag    2.042708  -10.213540   -4.085416
Ag    2.042708  -10.213540    0.000000
Ag    2.042708  -10.213540    4.085416
Ag    2.042708  -10.213540    8.170832
Ag    2.042708  -10.213540   12.256248
Ag    2.042708  -10.213540   16.341663
Ag    2.042708  -10.213540   20.427079
Ag    2.042708   -6.128124  -20.427079
Ag    2.042708   -6.128124  -16.341663
Ag    2.042708   -6.128124  -12.256248
Ag    2.042708   -6.128124   -8.170832
Ag    2.042708   -6.128124   -4.085416
Ag    2.042708   -6.128124    0.000000
Ag    2.042708   -6.128124    4.085416
Ag    2.042708   -6.128124    8.170832
Ag    2.042708   -6.128124   12.256248
Ag    2.042708   -6.128124   16.341663
Ag    2.042708   -6.128124   20.427079
Ag    2.042708   -2.042708  -20.427079
Ag    2.042708   -2.042708  -16.341663
Ag    2.042708   -2.042708  -12.256248
Ag    2.042708   -2.042708   -8.170832
Ag    2.042708   -2.042708   -4.085416
Ag    2.042708   -2.042708    0.000000
Ag    2.042708   -2.042708    4.085416
Ag    2.042708   -2.042708    8.170832
Ag    2.042708   -2.042708   12.256248
Ag    2.042708   -2.042708   16.341663
Ag    2.042708   -2.042708   20.427079
Ag    2.042708    2.042708  -20.427079
Ag    2.042708    2.042708  -16.341663
Ag    2.042708    2.042708  -12.256248
Ag    2.042708    2.042708   -8.170832
Ag    2.042708    2.042708   -4.085416
Ag    2.042708    2.042708    0.000000
Ag    2.042708    2.042708    4.085416
Ag    2.042708    2.042708    8.170832
Ag    2.042708    2.042708   12.256248
Ag    2.042708    2.042708   16.341663
Ag    2.042708    2.042708   20.427079
Ag    2.042708    6.128124  -20.427079
Ag    2.042708    6.128124  -16.341663
Ag    2.042708    6.128124  -12.256248
Ag    2.042708    6.128124   -8.170832
Ag    2.042708    6.128124   -4.085416
Ag    2.042708    6.128124    0.000000
Ag    2.042708    6.128124    4.085416
Ag    2.042708    6.128124    8.170832
Ag    2.042708    6.128124   12.256248
Ag    2.042708    6.128124   16.341663
Ag    2.042708    6.128124   20.427079
Ag    2.042708   10.213540  -20.427079
Ag    2.042708   10.213540  -16.341663
Ag    2.042708   10.213540  -12.256248
Ag    2.042708   10.213540   -8.170832
Ag    2.042708   10.213540   -4.085416
Ag    2.042708   10.213540    0.000000
Ag    2.042708   10.213540    4.085416
Ag    2.042708   10.213540    8.170832
Ag    2.042708   10.213540   12.256248
Ag    2.042708   10.213540   16.341663
Ag    2.042708   10.213540   20.427079
Ag    2.042708   14.298955  -16.341663
Ag    2.042708   14.298955  -12.256248
Ag    2.042708   14.298955   -8.170832
Ag    2.042708   14.298955   -4.085416
Ag    2.042708   14.298955    0.000000
Ag    2.042708   14.298955    4.085416
Ag    2.042708   14.298955    8.170832
Ag    2.042708   14.298955   12.256248
Ag    2.042708   14.298955   16.341663
Ag    2.042708   18.384371  -12.256248
Ag    2.042708   18.384371   -8.170832
Ag    2.042708   18.384371   -4.085416
Ag    2.042708   18.384371    0.000000
Ag    2.042708   18.384371    4.085416
Ag    2.042708   18.384371    8.170832
Ag    2.042708   18.384371   12.256248
Ag    2.042708   22.469787   -8.170832
Ag    2.042708   22.469787   -4.085416
Ag    2.042708   22.469787    0.000000
Ag    2.042708   22.469787    4.085416
Ag    2.042708   22.469787    8.170832
Ag    6.128124  -22.469787   -8.170832
Ag    6.128124  -22.469787   -4.085416
Ag    6.128124  -22.469787    0.000000
Ag    6.128124  -22.469787    4.085416
Ag    6.128124  -22.469787    8.170832
Ag    6.128124  -18.384371  -12.256248
Ag    6.128124  -18.384371   -8.170832
Ag    6.128124  -18.384371   -4.085416
Ag    6.128124  -18.384371    0.000000
Ag    6.128124  -18.384371    4.085416
Ag    6.128124  -18.384371    8.170832
Ag    6.128124  -18.384371   12.256248
Ag    6.128124  -14.298955  -16.341663
Ag    6.128124  -14.298955  -12.256248
Ag    6.128124  -14.298955   -8.170832
Ag    6.128124  -14.298955   -4.085416
Ag    6.128124  -14.298955    0.000000
Ag    6.128124  -14.298955    4.085416
Ag    6.128124  -14.298955    8.170832
Ag    6.128124  -14.298955   12.256248
Ag    6.128124  -14.298955   16.341663
Ag    6.128124  -10.213540  -20.427079
Ag    6.128124  -10.213540  -16.341663
Ag    6.128124  -10.213540  -12.256248
Ag    6.128124  -10.213540   -8.170832
Ag    6.128124  -10.213540   -4.085416
Ag    6.128124  -10.213540    0.000000
Ag    6.128124  -10.213540    4.085416
Ag    6.128124  -10.213540    8.170832
Ag    6.128124  -10.213540   12.256248
Ag    6.128124  -10.213540   16.341663
Ag    6.128124  -10.213540   20.427079
Ag    6.128124   -6.128124  -20.427079
Ag    6.128124   -6.128124  -16.341663
Ag    6.128124   -6.128124  -12.256248
Ag    6.128124   -6.128124   -8.170832
Ag    6.128124   -6.128124   -4.085416
Ag    6.128124   -6.128124    0.000000
Ag    6.128124   -6.128124    4.085416
Ag    6.128124   -6.128124    8.170832
Ag    6.128124   -6.128124   12.256248
Ag    6.128124   -6.128124   16.341663
Ag    6.128124   -6.128124   20.427079
Ag    6.128124   -2.042708  -20.427079
Ag    6.128124   -2.042708  -16.341663
Ag    6.128124   -2.042708  -12.256248
Ag    6.128124   -2.042708   -8.170832
Ag    6.128124   -2.042708   -4.085416
Ag    6.128124   -2.042708    0.000000
Ag    6.128124   -2.042708    4.085416
Ag    6.128124   -2.042708    8.170832
Ag    6.128124   -2.042708   12.256248
Ag    6.128124   -2.042708   16.341663
Ag    6.128124   -2.042708   20.427079
Ag    6.128124    2.042708  -20.427079
Ag    6.128124    2.042708  -16.341663
Ag    6.128124    2.042708  -12.256248
Ag    6.128124    2.042708   -8.170832
Ag    6.128124    2.042708   -4.085416
Ag    6.128124    2.042708    0.000000
Ag    6.128124    2.042708    4.085416
Ag    6.128124    2.042708    8.170832
Ag    6.128124    2.042708   12.256248
Ag    6.128124    2.042708   16.341663
Ag    6.128124    2.042708   20.427079
Ag    6.128124    6.128124  -20.427079
Ag    6.128124    6.128124  -16.341663
Ag    6.128124    6.128124  -12.256248
Ag    6.128124    6.128124   -8.170832
Ag    6.128124    6.128124   -4.085416
Ag    6.128124    6.128124    0.000000
Ag    6.128124    6.128124    4.085416
Ag    6.128124    6.128124    8.170832
Ag    6.128124    6.128124   12.256248
Ag    6.128124    6.128124   16.341663
Ag    6.128124    6.128124   20.427079
Ag    6.128124   10.213540  -20.427079
Ag    6.128124   10.213540  -16.341663
Ag    6.128124   10.213540  -12.256248
Ag    6.128124   10.213540   -8.170832
Ag    6.128124   10.213540   -4.085416
Ag    6.128124   10.213540    0.000000
Ag    6.128124   10.213540    4.085416
Ag    6.128124   10.213540    8.170832
Ag    6.128124   10.213540   12.256248
Ag    6.128124   10.213540   16.341663
Ag    6.128124   10.213540   20.427079
Ag    6.128124   14.298955  -16.341663
Ag    6.128124   14.298955  -12.256248
Ag    6.128124   14.298955   -8.170832
Ag    6.128124   14.298955   -4.085416
Ag    6.128124   14.298955    0.000000
Ag    6.128124   14.298955    4.085416
Ag    6.128124   14.298955    8.170832
Ag    6.128124   14.298955   12.256248
Ag    6.128124   14.298955   16.341663
Ag    6.128124   18.384371  -12.256248
Ag    6.128124   18.384371   -8.170832
Ag    6.128124   18.384371   -4.085416
Ag    6.128124   18.384371    0.000000
Ag    6.128124   18.384371    4.085416
Ag    6.128124   18.384371    8.170832
Ag    6.128124   18.384371   12.256248
Ag    6.128124   22.469787   -8.170832
Ag    6.128124   22.469787   -4.085416
Ag    6.128124   22.469787    0.000000
Ag    6.128124   22.469787    4.085416
Ag    6.128124   22.469787    8.170832
Ag   10.213540  -22.469787   -8.170832
Ag   10.213540  -22.469787   -4.085416
Ag   10.213540  -22.469787    0.000000
Ag   10.213540  -22.469787    4.085416
Ag   10.213540  -22.469787    8.170832
Ag   10.213540  -18.384371  -12.256248
Ag   10.213540  -18.384371   -8.170832
Ag   10.213540  -18.384371   -4.085416
Ag   10.213540  -18.384371    0.000000
Ag   10.213540  -18.384371    4.085416
Ag   10.213540  -18.384371    8.170832
Ag   10.213540  -18.384371   12.256248
Ag   10.213540  -14.298955  -16.341663
Ag   10.213540  -14.298955  -12.256248
Ag   10.213540  -14.298955   -8.170832
Ag   10.213540  -14.298955   -4.085416
Ag   10.213540  -14.298955    0.000000
Ag   10.213540  -14.298955    4.085416
Ag   10.213540  -14.298955    8.170832
Ag   10.213540  -14.298955   12.256248
Ag   10.213540  -14.298955   16.341663
Ag   10.213540  -10.213540  -20.427079
Ag   10.213540  -10.213540  -16.341663
Ag   10.213540  -10.213540  -12.256248
Ag   10.213540  -10.213540   -8.170832
Ag   10.213540  -10.213540   -4.085416
Ag   10.213540  -10.213540    0.000000
Ag   10.213540  -10.213540    4.085416
Ag   10.213540  -10.213540    8.170832
Ag   10.213540  -10.213540   12.256248
Ag   10.213540  -10.213540   16.341663
Ag   10.213540  -10.213540   20.427079
Ag   10.213540   -6.128124  -20.427079
Ag   10.213540   -6.128124  -16.341663
Ag   10.213540   -6.128124  -12.256248
Ag   10.213540   -6.128124   -8.170832
Ag   10.213540   -6.128124   -4.085416
Ag   10.213540   -6.128124    0.000000
Ag   10.213540   -6.128124    4.085416
Ag   10.213540   -6.128124    8.170832
Ag   10.213540   -6.128124   12.256248
Ag   10.213540   -6.128124   16.341663
Ag   10.213540   -6.128124   20.427079
Ag   10.213540   -2.042708  -20.427079
Ag   10.213540   -2.042708  -16.341663
Ag   10.213540   -2.042708  -12.256248
Ag   10.213540   -2.042708   -8.170832
Ag   10.213540   -2.042708   -4.085416
Ag   10.213540   -2.042708    0.000000
Ag   10.213540   -2.042708    4.085416
Ag   10.213540   -2.042708    8.170832
Ag   10.213540   -2.042708   12.256248
Ag   10.213540   -2.042708   16.341663
Ag   10.213540   -2.042708   20.427079
Ag   10.213540    2.042708  -20.427079
Ag   10.213540    2.042708  -16.341663
Ag   10.213540    2.042708  -12.256248
Ag   10.213540    2.042708   -8.170832
Ag   10.213540    2.042708   -4.085416
Ag   10.213540    2.042708    0.000000
Ag   10.213540    2.042708    4.085416
Ag   10.213540    2.042708    8.170832
Ag   10.213540    2.042708   12.256248
Ag   10.213540    2.042708   16.341663
Ag   10.213540    2.042708   20.427079
Ag   10.213540    6.128124  -20.427079
Ag   10.213540    6.128124  -16.341663
Ag   10.213540    6.128124  -12.256248
Ag   10.213540    6.128124   -8.170832
Ag   10.213540    6.128124   -4.085416
Ag   10.213540    6.128124    0.000000
Ag   10.213540    6.128124    4.085416
Ag   10.213540    6.128124    8.170832
Ag   10.213540    6.128124   12.256248
Ag   10.213540    6.128124   16.341663
Ag   10.213540    6.128124   20.427079
Ag   10.213540   10.213540  -20.427079
Ag   10.213540   10.213540  -16.341663
Ag   10.213540   10.213540  -12.256248
Ag   10.213540   10.213540   -8.170832
Ag   10.213540   10.213540   -4.085416
Ag   10.213540   10.213540    0.000000
Ag   10.213540   10.213540    4.085416
Ag   10.213540   10.213540    8.170832
Ag   10.213540   10.213540   12.256248
Ag   10.213540   10.213540   16.341663
Ag   10.213540   10.213540   20.427079
Ag   10.213540   14.298955  -16.341663
Ag   10.213540   14.298955  -12.256248
Ag   10.213540   14.298955   -8.170832
Ag   10.213540   14.298955   -4.085416
Ag   10.213540   14.298955    0.000000
Ag   10.213540   14.298955    4.085416
Ag   10.213540   14.298955    8.170832
Ag   10.213540   14.298955   12.256248
Ag   10.213540   14.298955   16.341663
Ag   10.213540   18.384371  -12.256248
Ag   10.213540   18.384371   -8.170832
Ag   10.213540   18.384371   -4.085416
Ag   10.213540   18.384371    0.000000
Ag   10.213540   18.384371    4.085416
Ag   10.213540   18.384371    8.170832
Ag   10.213540   18.384371   12.256248
Ag   10.213540   22.469787   -8.170832
Ag   10.213540   22.469787   -4.085416
Ag   10.213540   22.469787    0.000000
Ag   10.213540   22.469787    4.085416
Ag   10.213540   22.469787    8.170832
Ag   14.298955  -18.384371  -12.256248
Ag   14.298955  -18.384371   -8.170832
Ag   14.298955  -18.384371   -4.085416
Ag   14.298955  -18.384371    0.000000
Ag   14.298955  -18.384371    4.085416
Ag   14.298955  -18.384371    8.170832
Ag   14.298955  -18.384371   12.256248
Ag   14.298955  -14.298955  -16.341663
Ag   14.298955  -14.298955  -12.256248
Ag   14.298955  -14.298955   -8.170832
Ag   14.298955  -14.298955   -4.085416
Ag   14.298955  -14.298955    0.000000
Ag   14.298955  -14.298955    4.085416
Ag   14.298955  -14.298955    8.170832
Ag   14.298955  -14.298955   12.256248
Ag   14.298955  -14.298955   16.341663
Ag   14.298955  -10.213540  -16.341663
Ag   14.298955  -10.213540  -12.256248
Ag   14.298955  -10.213540   -8.170832
Ag   14.298955  -10.213540   -4.085416
Ag   14.298955  -10.213540    0.000000
Ag   14.298955  -10.213540    4.085416
Ag   14.298955  -10.213540    8.170832
Ag   14.298955  -10.213540   12.256248
Ag   14.298955  -10.213540   16.341663
Ag   14.298955   -6.128124  -16.341663
Ag   14.298955   -6.128124  -12.256248
Ag   14.298955   -6.128124   -8.170832
Ag   14.298955   -6.128124   -4.085416
Ag   14.298955   -6.128124    0.000000
Ag   14.298955   -6.128124    4.085416
Ag   14.298955   -6.128124    8.170832
Ag   14.298955   -6.128124   12.256248
Ag   14.298955   -6.128124   16.341663
Ag   14.298955   -2.042708  -16.341663
Ag   14.298955   -2.042708  -12.256248
Ag   14.298955   -2.042708   -8.170832
Ag   14.298955   -2.042708   -4.085416
Ag   14.298955   -2.042708    0.000000
Ag   14.298955   -2.042708    4.085416
Ag   14.298955   -2.042708    8.170832
Ag   14.298955   -2.042708   12.256248
Ag   14.298955   -2.042708   16.341663
Ag   14.298955    2.042708  -16.341663
Ag   14.298955    2.042708  -12.256248
Ag   14.298955    2.042708   -8.170832
Ag   14.298955    2.042708   -4.085416
Ag   14.298955    2.042708    0.000000
Ag   14.298955    2.042708    4.085416
Ag   14.298955    2.042708    8.170832
Ag   14.298955    2.042708   12.256248
Ag   14.298955    2.042708   16.341663
Ag   14.298955    6.128124  -16.341663
Ag   14.298955    6.128124  -12.256248
Ag   14.298955    6.128124   -8.170832
Ag   14.298955    6.128124   -4.085416
Ag   14.298955    6.128124    0.000000
Ag   14.298955    6.128124    4.085416
Ag   14.298955    6.128124    8.170832
Ag   14.298955    6.128124   12.256248
Ag   14.298955    6.128124   16.341663
Ag   14.298955   10.213540  -16.341663
Ag   14.298955   10.213540  -12.256248
Ag   14.298955   10.213540   -8.170832
Ag   14.298955   10.213540   -4.085416
Ag   14.298955   10.213540    0.000000
Ag   14.298955   10.213540    4.085416
Ag   14.298955   10.213540    8.170832
Ag   14.298955   10.213540   12.256248
Ag   14.298955   10.213540   16.341663
Ag   14.298955   14.298955  -16.341663
Ag   14.298955   14.298955  -12.256248
Ag   14.298955   14.298955   -8.170832
Ag   14.298955   14.298955   -4.085416
Ag   14.298955   14.298955    0.000000
Ag   14.298955   14.298955    4.085416
Ag   14.298955   14.298955    8.170832
Ag   14.298955   14.298955   12.256248
Ag   14.298955   14.298955   16.341663
Ag   14.298955   18.384371  -12.256248
Ag   14.298955   18.384371   -8.170832
Ag   14.298955   18.384371   -4.085416
Ag   14.298955   18.384371    0.000000
Ag   14.298955   18.384371    4.085416
Ag   14.298955   18.384371    8.170832
Ag   14.298955   18.384371   12.256248
Ag   18.384371  -14.298955  -12.256248
Ag   18.384371  -14.298955   -8.170832
Ag   18.384371  -14.298955   -4.085416
Ag   18.384371  -14.298955    0.000000
Ag   18.384371  -14.298955    4.085416
Ag   18.384371  -14.298955    8.170832
Ag   18.384371  -14.298955   12.256248
Ag   18.384371  -10.213540  -12.256248
Ag   18.384371  -10.213540   -8.170832
Ag   18.384371  -10.213540   -4.085416
Ag   18.384371  -10.213540    0.000000
Ag   18.384371  -10.213540    4.085416
Ag   18.384371  -10.213540    8.170832
Ag   18.384371  -10.213540   12.256248
Ag   18.384371   -6.128124  -12.256248
Ag   18.384371   -6.128124   -8.170832
Ag   18.384371   -6.128124   -4.085416
Ag   18.384371   -6.128124    0.000000
Ag   18.384371   -6.128124    4.085416
Ag   18.384371   -6.128124    8.170832
Ag   18.384371   -6.128124   12.256248
Ag   18.384371   -2.042708  -12.256248
Ag   18.384371   -2.042708   -8.170832
Ag   18.384371   -2.042708   -4.085416
Ag   18.384371   -2.042708    0.000000
Ag   18.384371   -2.042708    4.085416
Ag   18.384371   -2.042708    8.170832
Ag   18.384371   -2.042708   12.256248
Ag   18.384371    2.042708  -12.256248
Ag   18.384371    2.042708   -8.170832
Ag   18.384371    2.042708   -4.085416
Ag   18.384371    2.042708    0.000000
Ag   18.384371    2.042708    4.085416
Ag   18.384371    2.042708    8.170832
Ag   18.384371    2.042708   12.256248
Ag   18.384371    6.128124  -12.256248
Ag   18.384371    6.128124   -8.170832
Ag   18.384371    6.128124   -4.085416
Ag   18.384371    6.128124    0.000000
Ag   18.384371    6.128124    4.085416
Ag   18.384371    6.128124    8.170832
Ag   18.384371    6.128124   12.256248
Ag   18.384371   10.213540  -12.256248
Ag   18.384371   10.213540   -8.170832
Ag   18.384371   10.213540   -4.085416
Ag   18.384371   10.213540    0.000000
Ag   18.384371   10.213540    4.085416
Ag   18.384371   10.213540    8.170832
Ag   18.384371   10.213540   12.256248
Ag   18.384371   14.298955  -12.256248
Ag   18.384371   14.298955   -8.170832
Ag   18.384371   14.298955   -4.085416
Ag   18.384371   14.298955    0.000000
Ag   18.384371   14.298955    4.085416
Ag   18.384371   14.298955    8.170832
Ag   18.384371   14.298955   12.256248
Ag   22.469787  -10.213540   -8.170832
Ag   22.469787  -10.213540   -4.085416
Ag   22.469787  -10.213540    0.000000
Ag   22.469787  -10.213540    4.085416
Ag   22.469787  -10.213540    8.170832
Ag   22.469787   -6.128124   -8.170832
Ag   22.469787   -6.128124   -4.085416
Ag   22.469787   -6.128124    0.000000
Ag   22.469787   -6.128124    4.085416
Ag   22.469787   -6.128124    8.170832
Ag   22.469787   -2.042708   -8.170832
Ag   22.469787   -2.042708   -4.085416
Ag   22.469787   -2.042708    0.000000
Ag   22.469787   -2.042708    4.085416
Ag   22.469787   -2.042708    8.170832
Ag   22.469787    2.042708   -8.170832
Ag   22.469787    2.042708   -4.085416
Ag   22.469787    2.042708    0.000000
Ag   22.469787    2.042708    4.085416
Ag   22.469787    2.042708    8.170832
Ag   22.469787    6.128124   -8.170832
Ag   22.469787    6.128124   -4.085416
Ag   22.469787    6.128124    0.000000
Ag   22.469787    6.128124    4.085416
Ag   22.469787    6.128124    8.170832
Ag   22.469787   10.213540   -8.170832
Ag   22.469787   10.213540   -4.085416
Ag   22.469787   10.213540    0.000000
Ag   22.469787   10.213540    4.085416
Ag   22.469787   10.213540    8.170832
