158
 generated by VMD
 Au       -0.298270       -0.298270       -0.129840
 Au        2.849490       -0.326290       -0.227250
 Au        5.983690       -0.328380       -0.207070
 Au       -0.326290        2.849490       -0.227340
 Au        2.834860        2.834960       -0.363240
 Au        5.976640        2.830500       -0.333290
 Au       -0.328270        5.983580       -0.206860
 Au        2.830400        5.976430       -0.332780
 Au        5.970210        5.970210       -0.319770
 Au        1.287520        1.287620        1.972260
 Au        4.408200        1.271830        1.940780
 Au        7.631470        1.252890        1.984630
 Au        1.271430        4.407390        1.942310
 Au        4.399620        4.398720        1.890630
 Au        7.620940        4.380720        1.947650
 Au        1.252890        7.630760        1.985750
 Au        4.380930        7.620840        1.947550
 Au        7.541350        7.541350        1.993620
 Au       -0.354920       -0.354830        4.059670
 Au        2.839180       -0.467220        4.056290
 Au        5.973210       -0.443150        4.071120
 Au       -0.466530        2.835740        4.060010
 Au        2.837410        2.833040        4.053760
 Au        5.973300        2.822190        4.065330
 Au       -0.443150        5.973100        4.074660
 Au        2.825540        5.970470        4.064560
 Au        5.939130        5.938010        4.077740
 Au        1.269610        1.255740        6.124180
 Au        4.399740        1.241570        6.158230
 Au        7.650200        1.261590        6.154260
 Au        1.244110        4.388380        6.146660
 Au        4.374820        4.367160        6.183760
 Au        7.649310        4.369810        6.182540
 Au        1.276010        7.661830        6.139530
 Au        4.375490        7.639300        6.191240
 Au        7.549810        7.547380        6.165630
 Au       -0.328930       -0.334100        8.233440
 Au        2.829060       -0.415550        8.264660
 Au        6.003130       -0.426180        8.216490
 Au       -0.475520        2.811670        8.180390
 Au        2.772650        2.763110        8.328230
 Au        5.890880        2.782780        8.396930
 Au       -0.505710        6.018640        8.090570
 Au        2.763370        5.844590        8.366660
 Au        5.907410        5.882770        8.299780
 Au        1.156110        1.349560       10.441150
 Au        4.403260        1.015960       10.679400
 Au        7.590210        1.305840       10.694320
 Au        0.402030        4.423580       10.688910
 Au        3.366850        4.067800       10.996080
 Au        7.231380        4.347470       10.794970
 Au        1.220800        7.493210       10.459120
 Au        4.358040        7.261620       10.616640
 Au        7.511890        7.454700       10.408020
 C         2.980010        4.028950       12.949910
 C         3.479730        3.212530       15.136520
 C         2.154440        3.601290       15.762900
 C         2.293810        4.301340       17.091150
 H         1.500190        4.894710       17.528151
 C         3.398480        4.140580       17.835400
 H         3.490400        4.676110       18.895281
 C         4.462960        3.177900       17.401279
 H         5.412800        3.227330       17.973391
 C         4.578650        3.074250       15.913240
 C         0.911680        3.434700       15.181020
 C         0.590670        2.404230       14.096300
 C        -0.668080        2.306550       13.620180
 H        -0.919090        1.543730       12.886570
 C        -1.780420        3.139160       14.099400
 C        -1.595730        4.020590       15.087120
 H        -2.438520        4.609840       15.440130
 C        -0.251720        4.289500       15.718320
 C         1.536160        1.287290       13.664960
 H         1.951330        0.789920       14.567030
 H         2.337380        1.586790       12.982430
 H         1.008910        0.491380       13.095590
 C        -3.139130        2.953370       13.478170
 H        -3.076430        3.168430       12.390340
 H        -3.898890        3.631900       13.921960
 H        -3.475750        1.905620       13.621140
 C         0.024590        5.781270       15.412080
 H        -0.773180        6.417480       15.851770
 H         0.048930        5.949420       14.312460
 H         0.987970        6.149940       15.809480
 C         5.929340        2.974650       15.295560
 C         6.500450        1.773070       15.026850
 C         7.832030        1.728180       14.361300
 H         8.284050        0.765300       14.140980
 C         8.468810        2.865820       14.019410
 C         7.844870        4.175550       14.321800
 H         8.372640        5.084450       14.044940
 C         6.642920        4.241780       14.926640
 C         5.808950        0.477220       15.370150
 H         6.422940       -0.397900       15.070300
 H         4.834850        0.416430       14.840330
 H         5.635510        0.421780       16.465481
 C         9.804040        2.837770       13.330510
 H        10.160400        1.799880       13.158450
 H        10.553390        3.371080       13.952090
 H         9.721210        3.347760       12.347440
 C         6.023210        5.585330       15.228210
 H         6.668630        6.427250       14.898280
 H         5.859910        5.682310       16.321819
 H         5.047540        5.676440       14.707000
 N         3.698080        3.300880       13.728170
 Au        2.764610       -0.090180       19.995810
 Au        5.919620       -0.257260       20.055969
 Au       -0.118470        2.779490       19.932730
 Au        2.939720        3.582060       20.107950
 Au        6.057980        2.781710       20.539249
 Au       -0.239280        5.873530       19.975161
 Au        2.656720        6.812690       20.320841
 Au        5.874600        5.865950       19.953440
 Au        1.202600        1.252150       22.308649
 Au        4.313710        1.211510       22.357651
 Au        7.717650        1.160410       22.484659
 Au        1.198860        4.463970       22.347589
 Au        4.424790        4.541270       22.394079
 Au        7.715190        4.421950       22.433760
 Au        1.070180        7.798930       22.661570
 Au        4.450910        7.757480       22.539949
 Au        7.544020        7.524000       22.329729
 Au       -0.374860       -0.369820       24.514641
 Au        2.805100       -0.490140       24.470369
 Au        5.956080       -0.472510       24.477470
 Au       -0.476080        2.817590       24.449511
 Au        2.797460        2.832120       24.405769
 Au        5.964750        2.807270       24.422079
 Au       -0.508760        5.935370       24.519541
 Au        2.793290        5.994390       24.469440
 Au        5.981860        5.957470       24.511410
 Au        1.271650        1.275680       26.525820
 Au        4.384650        1.242030       26.515341
 Au        7.656850        1.241690       26.518620
 Au        1.235860        4.384460       26.529310
 Au        4.369320        4.367680       26.524220
 Au        7.682320        4.366840       26.535789
 Au        1.232190        7.666810       26.528090
 Au        4.374240        7.684560       26.535891
 Au        7.575200        7.574680       26.545740
 Au       -0.333180       -0.333490       28.592199
 Au        2.830290       -0.411560       28.637251
 Au        5.955410       -0.420050       28.597830
 Au       -0.414200        2.829370       28.641310
 Au        2.812610        2.811590       28.699100
 Au        5.935260        2.801900       28.644609
 Au       -0.422800        5.956430       28.601070
 Au        2.802920        5.936980       28.643789
 Au        5.919370        5.918660       28.611090
 Au        1.238990        1.238690       30.905260
 Au        4.378900        1.232260       30.919991
 Au        7.537170        1.225710       30.792351
 Au        1.232660        4.379000       30.919580
 Au        4.374640        4.374740       30.951059
 Au        7.535390        4.359710       30.812830
 Au        1.225920        7.537280       30.792351
 Au        4.359920        7.535390       30.812830
 Au        7.506760        7.506760       30.714411
