AtomicCoordinatesFormat  Ang
%block AtomicCoordinatesAndAtomicSpecies
     0.00000      0.00000      0.00000 1
     2.88372      0.00000      0.00000 1
     5.76744      0.00000      0.00000 1
     0.00000      2.88372      0.00000 1
     2.88372      2.88372      0.00000 1
     5.76744      2.88372      0.00000 1
     0.00000      5.76744      0.00000 1
     2.88372      5.76744      0.00000 1
     5.76744      5.76744      0.00000 1
     1.44186      1.44186      2.03910 1
     4.32558      1.44186      2.03910 1
     7.20930      1.44186      2.03910 1
     1.44186      4.32558      2.03910 1
     4.32558      4.32558      2.03910 1
     7.20930      4.32558      2.03910 1
     1.44186      7.20930      2.03910 1
     4.32558      7.20930      2.03910 1
     7.20930      7.20930      2.03910 1
     0.00000      0.00000      4.07820 1
     2.88372      0.00000      4.07820 1
     5.76744      0.00000      4.07820 1
     0.00000      2.88372      4.07820 1
     2.88372      2.88372      4.07820 1
     5.76744      2.88372      4.07820 1
     0.00000      5.76744      4.07820 1
     2.88372      5.76744      4.07820 1
     5.76744      5.76744      4.07820 1
     1.44186      1.44186      6.11730 1
     4.32558      1.44186      6.11730 1
     7.20930      1.44186      6.11730 1
     1.44186      4.32558      6.11730 1
     4.32558      4.32558      6.11730 1
     7.20930      4.32558      6.11730 1
     1.44186      7.20930      6.11730 1
     4.32558      7.20930      6.11730 1
     7.20930      7.20930      6.11730 1
%endblock AtomicCoordinatesAndAtomicSpecies
