262
 generated by VMD
 Ag        0.000000        0.000000        0.000000
 Ag       11.555313        0.000000        0.000000
 Ag        8.666485        0.000000        0.000000
 Ag        5.777657        0.000000        0.000000
 Ag        2.888828        0.000000        0.000000
 Ag        0.000000        5.003597        0.000000
 Ag       11.555313        5.003597        0.000000
 Ag        8.666485        5.003597        0.000000
 Ag        5.777657        5.003597        0.000000
 Ag        2.888828        5.003597        0.000000
 Ag       12.999726        2.501800        0.000000
 Ag       10.110897        2.501800        0.000000
 Ag        7.222069        2.501800        0.000000
 Ag        4.333241        2.501800        0.000000
 Ag        1.444412        2.501800        0.000000
 Ag       12.999726        7.505397        0.000000
 Ag       10.110897        7.505397        0.000000
 Ag        7.222069        7.505397        0.000000
 Ag        4.333241        7.505397        0.000000
 Ag        1.444412        7.505397        0.000000
 Ag       12.999726        4.169666        2.358716
 Ag       10.110897        4.169666        2.358716
 Ag        7.222069        4.169666        2.358716
 Ag        4.333241        4.169666        2.358716
 Ag        1.444412        4.169666        2.358716
 Ag       12.999726        9.173263        2.358716
 Ag       10.110897        9.173263        2.358716
 Ag        7.222069        9.173263        2.358716
 Ag        4.333241        9.173263        2.358716
 Ag        1.444412        9.173263        2.358716
 Ag        0.000000        1.667866        2.358719
 Ag       11.555313        1.667866        2.358719
 Ag        8.666485        1.667866        2.358719
 Ag        5.777657        1.667866        2.358719
 Ag        2.888828        1.667866        2.358719
 Ag        0.000000        6.671463        2.358719
 Ag       11.555313        6.671463        2.358719
 Ag        8.666485        6.671463        2.358719
 Ag        5.777657        6.671463        2.358719
 Ag        2.888828        6.671463        2.358719
 Ag       12.999726        0.833934        4.717435
 Ag       10.110897        0.833934        4.717435
 Ag        7.222069        0.833934        4.717435
 Ag        4.333241        0.833934        4.717435
 Ag        1.444412        0.833934        4.717435
 Ag       12.999726        5.837531        4.717435
 Ag       10.110897        5.837531        4.717435
 Ag        7.222069        5.837531        4.717435
 Ag        4.333241        5.837531        4.717435
 Ag        1.444412        5.837531        4.717435
 Ag        0.000000        3.335732        4.717437
 Ag       11.555313        3.335732        4.717437
 Ag        8.666485        3.335732        4.717437
 Ag        5.777657        3.335732        4.717437
 Ag        2.888828        3.335732        4.717437
 Ag        0.000000        8.339329        4.717437
 Ag       11.555313        8.339329        4.717437
 Ag        8.666485        8.339329        4.717437
 Ag        5.777657        8.339329        4.717437
 Ag        2.888828        8.339329        4.717437
 Ag        0.000000        0.000000        7.076156
 Ag       11.555313        0.000000        7.076156
 Ag        8.666485        0.000000        7.076156
 Ag        5.777657        0.000000        7.076156
 Ag        2.888828        0.000000        7.076156
 Ag        0.000000        5.003597        7.076156
 Ag       11.555313        5.003597        7.076156
 Ag        8.666485        5.003597        7.076156
 Ag        5.777657        5.003597        7.076156
 Ag        2.888828        5.003597        7.076156
 Ag       12.999726        2.501800        7.076153
 Ag       10.110897        2.501800        7.076153
 Ag        7.222069        2.501800        7.076153
 Ag        4.333241        2.501800        7.076153
 Ag        1.444412        2.501800        7.076153
 Ag       12.999726        7.505397        7.076153
 Ag       10.110897        7.505397        7.076153
 Ag        7.222069        7.505397        7.076153
 Ag        4.333241        7.505397        7.076153
 Ag        1.444412        7.505397        7.076153
 Ag       12.999726        4.169666        9.434872
 Ag       10.110897        4.169666        9.434872
 Ag        7.222069        4.169666        9.434872
 Ag        4.333241        4.169666        9.434872
 Ag        1.444412        4.169666        9.434872
 Ag       12.999726        9.173263        9.434872
 Ag       10.110897        9.173263        9.434872
 Ag        7.222069        9.173263        9.434872
 Ag        4.333241        9.173263        9.434872
 Ag        1.444412        9.173263        9.434872
 Ag        0.000000        1.667866        9.434874
 Ag       11.555313        1.667866        9.434874
 Ag        8.666485        1.667866        9.434874
 Ag        5.777657        1.667866        9.434874
 Ag        2.888828        1.667866        9.434874
 Ag        0.000000        6.671463        9.434874
 Ag       11.555313        6.671463        9.434874
 Ag        8.666485        6.671463        9.434874
 Ag        5.777657        6.671463        9.434874
 Ag        2.888828        6.671463        9.434874
 Ag       12.999726        0.833934       11.793590
 Ag       10.110897        0.833934       11.793590
 Ag        7.222069        0.833934       11.793590
 Ag        4.333241        0.833934       11.793590
 Ag        1.444412        0.833934       11.793590
 Ag       12.999726        5.837531       11.793590
 Ag       10.110897        5.837531       11.793590
 Ag        7.222069        5.837531       11.793590
 Ag        4.333241        5.837531       11.793590
 Ag        1.444412        5.837531       11.793590
 Ag        0.000000        3.335732       11.793593
 Ag       11.555313        3.335732       11.793593
 Ag        8.666485        3.335732       11.793593
 Ag        5.777657        3.335732       11.793593
 Ag        2.888828        3.335732       11.793593
 Ag        0.000000        8.339329       11.793593
 Ag       11.555313        8.339329       11.793593
 Ag        8.666485        8.339329       11.793593
 Ag        5.777657        8.339329       11.793593
 Ag        2.888828        8.339329       11.793593
 Ag        0.000000        5.003597       14.152311
 Ag       11.555313        5.003597       14.152311
 Ag        8.666485        5.003597       14.152311
 Ag        5.777657        5.003597       14.152311
 Ag        2.888828        5.003597       14.152311
 Ag        7.222069        2.501800       14.152311
 Ag       12.999726        7.505397       14.152311
 Ag       10.110897        7.505397       14.152311
 Ag        7.222069        7.505397       14.152311
 Ag        4.333241        7.505397       14.152311
 Ag        1.444412        7.505397       14.152311
 H         9.379444        5.000151       20.731464
 H        12.432186        5.142528       16.833151
 H        11.692249        0.987177       17.647951
 H        10.149246        6.567091       18.852333
 H        10.825672        6.766226       17.220413
 H         9.129068        6.296536       17.433697
 H         8.890600        1.558377       19.877626
 H         8.530529        0.923564       18.264997
 H         9.972023        0.362649       19.122852
 H        14.020556        1.845628       17.035910
 H        14.183316        3.500716       16.406549
 H        13.344864        2.258487       15.450857
 H         5.064697        5.000151       20.731464
 H         2.011955        5.142528       16.833151
 H         2.751892        0.987177       17.647951
 H         4.294895        6.567091       18.852333
 H         3.618471        6.766226       17.220413
 H         5.315073        6.296536       17.433697
 H         5.553541        1.558377       19.877626
 H         5.913612        0.923564       18.264997
 H         4.472120        0.362649       19.122852
 H         0.423584        1.845628       17.035910
 H         0.260826        3.500716       16.406549
 H         1.099279        2.258487       15.450857
 H         7.222071        5.595085       21.815420
 C         9.748817        3.696914       18.361687
 C         8.467718        4.058194       19.031483
 C        10.556866        4.709392       17.800646
 C        10.163837        2.346307       18.307112
 C         8.435406        4.740296       20.251848
 C        12.199324        3.013325       17.123146
 C        11.773399        4.347951       17.197187
 C        11.373543        2.031898       17.679274
 C        10.145638        6.157821       17.831598
 C         9.347485        1.243600       18.929802
 C        13.503195        2.635926       16.474670
 C         4.695322        3.696914       18.361687
 C         5.976425        4.058194       19.031483
 C         3.887276        4.709392       17.800646
 C         4.280304        2.346307       18.307112
 C         6.008736        4.740296       20.251848
 C         2.244816        3.013325       17.123146
 C         2.670742        4.347951       17.197187
 C         3.070601        2.031898       17.679274
 C         4.298504        6.157821       17.831598
 C         5.096657        1.243600       18.929802
 C         0.940948        2.635926       16.474670
 C         7.222071        3.725753       18.450066
 C         7.222071        5.073498       20.857782
 C         7.222071        2.501800       16.218130
 N         7.222071        3.062972       17.253258
 Ag        0.000000        3.335732       23.815418
 Ag       11.555313        3.335732       23.815418
 Ag        8.666485        3.335732       23.815418
 Ag        5.777657        3.335732       23.815418
 Ag        2.888828        3.335732       23.815418
 Ag        0.000000        8.339329       23.815418
 Ag       11.555313        8.339329       23.815418
 Ag        8.666485        8.339329       23.815418
 Ag        5.777657        8.339329       23.815418
 Ag        2.888828        8.339329       23.815418
 Ag       12.999726        0.833934       23.815418
 Ag       10.110897        0.833934       23.815418
 Ag        7.222069        0.833934       23.815418
 Ag        4.333241        0.833934       23.815418
 Ag        1.444412        0.833934       23.815418
 Ag       12.999726        5.837531       23.815418
 Ag       10.110897        5.837531       23.815418
 Ag        7.222069        5.837531       23.815418
 Ag        4.333241        5.837531       23.815418
 Ag        1.444412        5.837531       23.815418
 Ag        0.000000        0.000000       26.174139
 Ag       11.555313        0.000000       26.174139
 Ag        8.666485        0.000000       26.174139
 Ag        5.777657        0.000000       26.174139
 Ag        2.888828        0.000000       26.174139
 Ag        0.000000        5.003597       26.174139
 Ag       11.555313        5.003597       26.174139
 Ag        8.666485        5.003597       26.174139
 Ag        5.777657        5.003597       26.174139
 Ag        2.888828        5.003597       26.174139
 Ag       12.999726        2.501800       26.174139
 Ag       10.110897        2.501800       26.174139
 Ag        7.222069        2.501800       26.174139
 Ag        4.333241        2.501800       26.174139
 Ag        1.444412        2.501800       26.174139
 Ag       12.999726        7.505397       26.174139
 Ag       10.110897        7.505397       26.174139
 Ag        7.222069        7.505397       26.174139
 Ag        4.333241        7.505397       26.174139
 Ag        1.444412        7.505397       26.174139
 Ag       12.999726        4.169666       28.532856
 Ag       10.110897        4.169666       28.532856
 Ag        7.222069        4.169666       28.532856
 Ag        4.333241        4.169666       28.532856
 Ag        1.444412        4.169666       28.532856
 Ag       12.999726        9.173263       28.532856
 Ag       10.110897        9.173263       28.532856
 Ag        7.222069        9.173263       28.532856
 Ag        4.333241        9.173263       28.532856
 Ag        1.444412        9.173263       28.532856
 Ag        0.000000        1.667866       28.532858
 Ag       11.555313        1.667866       28.532858
 Ag        8.666485        1.667866       28.532858
 Ag        5.777657        1.667866       28.532858
 Ag        2.888828        1.667866       28.532858
 Ag        0.000000        6.671463       28.532858
 Ag       11.555313        6.671463       28.532858
 Ag        8.666485        6.671463       28.532858
 Ag        5.777657        6.671463       28.532858
 Ag        2.888828        6.671463       28.532858
 Ag        0.000000        3.335732       30.891575
 Ag       11.555313        3.335732       30.891575
 Ag        8.666485        3.335732       30.891575
 Ag        5.777657        3.335732       30.891575
 Ag        2.888828        3.335732       30.891575
 Ag        0.000000        8.339329       30.891575
 Ag       11.555313        8.339329       30.891575
 Ag        8.666485        8.339329       30.891575
 Ag        5.777657        8.339329       30.891575
 Ag        2.888828        8.339329       30.891575
 Ag       12.999726        0.833934       30.891575
 Ag       10.110897        0.833934       30.891575
 Ag        7.222069        0.833934       30.891575
 Ag        4.333241        0.833934       30.891575
 Ag        1.444412        0.833934       30.891575
 Ag       12.999726        5.837531       30.891575
 Ag       10.110897        5.837531       30.891575
 Ag        7.222069        5.837531       30.891575
 Ag        4.333241        5.837531       30.891575
 Ag        1.444412        5.837531       30.891575

