43
generated by VMD
C 0.000000 5.000000 15.240000
C 1.270000 5.000000 15.240000
C 2.540000 5.000000 15.240000
C 3.810000 5.000000 15.240000
C 5.080000 5.000000 15.240000
C 6.350000 5.000000 15.240000
C 7.620000 5.000000 15.240000
C 8.890000 5.000000 15.240000
C 10.160000 5.000000 15.240000
C 11.430000 5.000000 15.240000
C 12.700000 5.000000 15.240000
C 13.970000 5.000000 15.240000
C 15.240000 5.000000 0.000000
C 15.240000 5.000000 1.270000
C 15.240000 5.000000 2.540000
C 15.240000 5.000000 3.810000
C 15.240000 5.000000 5.080000
C 15.240000 5.000000 6.350000
C 15.240000 5.000000 7.620000
C 15.240000 5.000000 8.890000
C 15.240000 5.000000 10.160000
C 15.240000 5.000000 11.430000
C 15.240000 5.000000 12.700000
C 15.240000 5.000000 13.970000
C 15.240000 5.000000 16.510000
C 15.240000 5.000000 17.780000
C 15.240000 5.000000 19.050000
C 15.240000 5.000000 20.320000
C 15.240000 5.000000 21.590000
C 15.240000 5.000000 22.860000
C 15.240000 5.000000 24.130000
C 15.240000 5.000000 25.400000
C 15.240000 5.000000 26.670000
C 15.240000 5.000000 27.940000
C 15.240000 5.000000 29.210000
C 15.240000 5.000000 30.480000
C 16.510000 5.000000 15.240000
C 17.780000 5.000000 15.240000
C 19.050000 5.000000 15.240000
C 20.320000 5.000000 15.240000
C 21.590000 5.000000 15.240000
C 22.860000 5.000000 15.240000
C 24.130000 5.000000 15.240000
