SystemName  AuDMP 
SystemLabel AuDMP

# ATOMIC POSITIONS
# Atomic coordinates
NumberOfAtoms 327
AtomicCoordinatesFormat Ang
%block AtomicCoordinatesAndAtomicSpecies
0.000000 0.000000 0.000000 1
0.000000 2.883758 0.000000 1
0.000000 5.767517 0.000000 1
12.487040 1.441879 0.000000 1
12.487040 4.325637 0.000000 1
12.487040 7.209396 0.000000 1
14.984447 0.000000 0.000000 1
14.984447 2.883758 0.000000 1
14.984447 5.767517 0.000000 1
17.481855 1.441879 0.000000 1
17.481855 4.325637 0.000000 1
17.481855 7.209396 0.000000 1
2.497408 1.441879 0.000000 1
2.497408 4.325637 0.000000 1
2.497408 7.209396 0.000000 1
4.994816 0.000000 0.000000 1
4.994816 2.883758 0.000000 1
4.994816 5.767517 0.000000 1
7.492224 1.441879 0.000000 1
7.492224 4.325637 0.000000 1
7.492224 7.209396 0.000000 1
9.989632 0.000000 0.000000 1
9.989632 2.883758 0.000000 1
9.989632 5.767517 0.000000 1
11.654570 0.000000 2.354579 1
11.654570 2.883758 2.354579 1
11.654570 5.767517 2.354579 1
14.151978 1.441879 2.354579 1
14.151978 4.325637 2.354579 1
14.151978 7.209396 2.354579 1
16.649385 0.000000 2.354579 1
16.649385 2.883758 2.354579 1
16.649385 5.767517 2.354579 1
1.664939 0.000000 2.354579 1
1.664939 2.883758 2.354579 1
1.664939 5.767517 2.354579 1
19.146793 1.441879 2.354579 1
19.146793 4.325637 2.354579 1
19.146793 7.209396 2.354579 1
4.162346 1.441879 2.354579 1
4.162346 4.325637 2.354579 1
4.162346 7.209396 2.354579 1
6.659755 0.000000 2.354579 1
6.659755 2.883758 2.354579 1
6.659755 5.767517 2.354579 1
9.157162 1.441879 2.354579 1
9.157162 4.325637 2.354579 1
9.157162 7.209396 2.354579 1
0.832469 1.441879 4.709157 1
0.832469 4.325637 4.709157 1
0.832469 7.209396 4.709157 1
10.822102 1.441879 4.709157 1
10.822102 4.325637 4.709157 1
10.822102 7.209396 4.709157 1
13.319510 0.000000 4.709157 1
13.319510 2.883758 4.709157 1
13.319510 5.767517 4.709157 1
15.816917 1.441879 4.709157 1
15.816917 4.325637 4.709157 1
15.816917 7.209396 4.709157 1
18.314325 0.000000 4.709157 1
18.314325 2.883758 4.709157 1
18.314325 5.767517 4.709157 1
3.329877 0.000000 4.709157 1
3.329877 2.883758 4.709157 1
3.329877 5.767517 4.709157 1
5.827285 1.441879 4.709157 1
5.827285 4.325637 4.709157 1
5.827285 7.209396 4.709157 1
8.324694 0.000000 4.709157 1
8.324694 2.883758 4.709157 1
8.324694 5.767517 4.709157 1
0.000000 0.000000 7.063736 1
0.000000 2.883758 7.063736 1
0.000000 5.767517 7.063736 1
12.487040 1.441879 7.063736 1
12.487040 4.325637 7.063736 1
12.487040 7.209396 7.063736 1
14.984447 0.000000 7.063736 1
14.984447 2.883758 7.063736 1
14.984447 5.767517 7.063736 1
17.481855 1.441879 7.063736 1
17.481855 4.325637 7.063736 1
17.481855 7.209396 7.063736 1
2.497408 1.441879 7.063736 1
2.497408 4.325637 7.063736 1
2.497408 7.209396 7.063736 1
4.994816 0.000000 7.063736 1
4.994816 2.883758 7.063736 1
4.994816 5.767517 7.063736 1
7.492224 1.441879 7.063736 1
7.492224 4.325637 7.063736 1
7.492224 7.209396 7.063736 1
9.989632 0.000000 7.063736 1
9.989632 2.883758 7.063736 1
9.989632 5.767517 7.063736 1
11.654570 0.000000 9.418315 1
11.654570 2.883758 9.418315 1
11.654570 5.767517 9.418315 1
14.151978 1.441879 9.418315 1
14.151978 4.325637 9.418315 1
14.151978 7.209396 9.418315 1
16.649385 0.000000 9.418315 1
16.649385 2.883758 9.418315 1
16.649385 5.767517 9.418315 1
1.664939 0.000000 9.418315 1
1.664939 2.883758 9.418315 1
1.664939 5.767517 9.418315 1
19.146793 1.441879 9.418315 1
19.146793 4.325637 9.418315 1
19.146793 7.209396 9.418315 1
4.162346 1.441879 9.418315 1
4.162346 4.325637 9.418315 1
4.162346 7.209396 9.418315 1
6.659755 0.000000 9.418315 1
6.659755 2.883758 9.418315 1
6.659755 5.767517 9.418315 1
9.157162 1.441879 9.418315 1
9.157162 4.325637 9.418315 1
9.157162 7.209396 9.418315 1
0.832469 1.441879 11.772894 1
0.832469 4.325637 11.772894 1
0.832469 7.209396 11.772894 1
3.329877 0.000000 11.772894 1
3.329877 2.883758 11.772894 1
3.329877 5.767517 11.772894 1
5.827285 1.441879 11.772894 1
5.827285 4.325637 11.772894 1
5.827285 7.209396 11.772894 1
8.324694 0.000000 11.772894 1
8.324694 2.883758 11.772894 1
8.324694 5.767517 11.772894 1
14.477000 3.412300 14.127473 2
2.234310 3.403530 14.127473 2
8.355210 3.398390 14.865872 3
14.663600 3.402080 15.212173 3
2.047570 3.402040 15.212173 3
15.260900 2.507980 15.441273 2
1.446430 2.512240 15.447673 2
1.446500 4.291200 15.450273 2
15.268600 4.286860 15.456673 2
13.361700 3.400850 16.002073 3
3.349470 3.401030 16.002172 3
13.193100 1.238170 16.065073 2
3.513810 1.238220 16.072474 2
8.355600 3.400300 16.076874 4
3.501480 5.563660 16.099073 2
13.214000 5.563460 16.106274 2
12.723400 2.186960 16.343674 3
3.985370 2.187020 16.347874 3
3.978390 4.614260 16.362873 3
12.735300 4.614110 16.367172 3
9.845200 0.753180 16.881273 2
6.864270 0.752640 16.898373 2
6.852250 6.055000 16.936672 2
9.860700 6.055200 16.954372 2
11.498300 2.164530 17.046072 3
11.449200 0.000000 17.048872 2
5.210520 2.164570 17.050173 3
5.258800 0.000050 17.053772 2
5.203490 4.635050 17.065472 3
11.510100 4.634930 17.069473 3
5.242720 6.799600 17.089073 2
11.471600 6.799500 17.093773 2
10.822300 0.839380 17.381073 3
5.883370 0.839230 17.390673 3
10.895900 3.399290 17.411573 3
5.815350 3.399380 17.411573 3
5.868740 5.960000 17.422073 3
10.848000 5.960000 17.431772 3
8.355600 3.399020 17.487972 3
7.109520 3.398470 18.167273 3
9.601700 3.398470 18.167273 3
10.651100 0.733900 18.462572 2
6.046350 0.733720 18.473373 2
6.024880 6.056500 18.506672 2
10.700700 6.056600 18.517572 2
7.132740 3.396980 19.582872 3
9.578500 3.396990 19.582872 3
10.527700 3.396120 20.123173 2
6.183460 3.396210 20.123173 2
8.355610 3.396180 20.287172 3
8.355610 3.394790 21.378372 2
0.832469 1.441879 23.732950 1
0.832469 4.325637 23.732950 1
0.832469 7.209396 23.732950 1
10.822102 1.441879 23.732950 1
10.822102 4.325637 23.732950 1
10.822102 7.209396 23.732950 1
13.319510 0.000000 23.732950 1
13.319510 2.883758 23.732950 1
13.319510 5.767517 23.732950 1
15.816917 1.441879 23.732950 1
15.816917 4.325637 23.732950 1
15.816917 7.209396 23.732950 1
18.314325 0.000000 23.732950 1
18.314325 2.883758 23.732950 1
18.314325 5.767517 23.732950 1
3.329877 0.000000 23.732950 1
3.329877 2.883758 23.732950 1
3.329877 5.767517 23.732950 1
5.827285 1.441879 23.732950 1
5.827285 4.325637 23.732950 1
5.827285 7.209396 23.732950 1
8.324694 0.000000 23.732950 1
8.324694 2.883758 23.732950 1
8.324694 5.767517 23.732950 1
11.654570 0.000000 26.087551 1
11.654570 2.883758 26.087551 1
11.654570 5.767517 26.087551 1
14.151978 1.441879 26.087551 1
14.151978 4.325637 26.087551 1
14.151978 7.209396 26.087551 1
16.649385 0.000000 26.087551 1
16.649385 2.883758 26.087551 1
16.649385 5.767517 26.087551 1
1.664939 0.000000 26.087551 1
1.664939 2.883758 26.087551 1
1.664939 5.767517 26.087551 1
19.146793 1.441879 26.087551 1
19.146793 4.325637 26.087551 1
19.146793 7.209396 26.087551 1
4.162346 1.441879 26.087551 1
4.162346 4.325637 26.087551 1
4.162346 7.209396 26.087551 1
6.659755 0.000000 26.087551 1
6.659755 2.883758 26.087551 1
6.659755 5.767517 26.087551 1
9.157162 1.441879 26.087551 1
9.157162 4.325637 26.087551 1
9.157162 7.209396 26.087551 1
0.000000 0.000000 28.442150 1
0.000000 2.883758 28.442150 1
0.000000 5.767517 28.442150 1
12.487040 1.441879 28.442150 1
12.487040 4.325637 28.442150 1
12.487040 7.209396 28.442150 1
14.984447 0.000000 28.442150 1
14.984447 2.883758 28.442150 1
14.984447 5.767517 28.442150 1
17.481855 1.441879 28.442150 1
17.481855 4.325637 28.442150 1
17.481855 7.209396 28.442150 1
2.497408 1.441879 28.442150 1
2.497408 4.325637 28.442150 1
2.497408 7.209396 28.442150 1
4.994816 0.000000 28.442150 1
4.994816 2.883758 28.442150 1
4.994816 5.767517 28.442150 1
7.492224 1.441879 28.442150 1
7.492224 4.325637 28.442150 1
7.492224 7.209396 28.442150 1
9.989632 0.000000 28.442150 1
9.989632 2.883758 28.442150 1
9.989632 5.767517 28.442150 1
0.832469 1.441879 30.796650 1
0.832469 4.325637 30.796650 1
0.832469 7.209396 30.796650 1
13.319509 2.883758 30.796650 1
13.319509 5.767516 30.796650 1
13.319509 8.651275 30.796650 1
15.816916 1.441879 30.796650 1
15.816916 4.325637 30.796650 1
15.816916 7.209396 30.796650 1
18.314323 2.883758 30.796650 1
18.314323 5.767516 30.796650 1
18.314323 8.651275 30.796650 1
3.329877 2.883758 30.796650 1
3.329877 5.767516 30.796650 1
3.329877 8.651275 30.796650 1
5.827285 1.441879 30.796650 1
5.827285 4.325637 30.796650 1
5.827285 7.209396 30.796650 1
8.324693 2.883758 30.796650 1
8.324693 5.767516 30.796650 1
8.324693 8.651275 30.796650 1
10.822101 1.441879 30.796650 1
10.822101 4.325637 30.796650 1
10.822101 7.209396 30.796650 1
12.487039 1.441879 33.151249 1
12.487039 4.325637 33.151249 1
12.487039 7.209396 33.151249 1
14.984447 2.883758 33.151249 1
14.984447 5.767516 33.151249 1
14.984447 8.651275 33.151249 1
17.481853 1.441879 33.151249 1
17.481853 4.325637 33.151249 1
17.481853 7.209396 33.151249 1
2.497408 1.441879 33.151249 1
2.497408 4.325637 33.151249 1
2.497408 7.209396 33.151249 1
19.979261 2.883758 33.151249 1
19.979261 5.767516 33.151249 1
19.979261 8.651275 33.151249 1
4.994815 2.883758 33.151249 1
4.994815 5.767516 33.151249 1
4.994815 8.651275 33.151249 1
7.492224 1.441879 33.151249 1
7.492224 4.325637 33.151249 1
7.492224 7.209396 33.151249 1
9.989631 2.883758 33.151249 1
9.989631 5.767516 33.151249 1
9.989631 8.651275 33.151249 1
1.664938 2.883758 35.505852 1
1.664938 5.767516 35.505852 1
1.664938 8.651275 35.505852 1
11.654571 2.883758 35.505852 1
11.654571 5.767516 35.505852 1
11.654571 8.651275 35.505852 1
14.151979 1.441879 35.505852 1
14.151979 4.325637 35.505852 1
14.151979 7.209396 35.505852 1
16.649385 2.883758 35.505852 1
16.649385 5.767516 35.505852 1
16.649385 8.651275 35.505852 1
19.146793 1.441879 35.505852 1
19.146793 4.325637 35.505852 1
19.146793 7.209396 35.505852 1
4.162346 1.441879 35.505852 1
4.162346 4.325637 35.505852 1
4.162346 7.209396 35.505852 1
6.659754 2.883758 35.505852 1
6.659754 5.767516 35.505852 1
6.659754 8.651275 35.505852 1
9.157163 1.441879 35.505852 1
9.157163 4.325637 35.505852 1
9.157163 7.209396 35.505852 1
%endblock AtomicCoordinatesAndAtomicSpecies

# UNIT CELL
LatticeConstant       1.0 Ang 
%block LatticeVectors
       19.979261         0.000000         0.000000
        0.000000         8.651275         0.000000
        0.000000         0.000000        35.505852
%endblock LatticeVectors

#Zaxis is the top gold top bound So position of top layer plus distance in repetition

# K-points

%block kgrid_Monkhorst_Pack
1   0   0   0.0
0   1   0   0.0
0   0   10  0.0
%endblock kgrid_Monkhorst_Pack


# Chemical species

NumberOfSpecies 4
%block ChemicalSpeciesLabel
1  79  Au
2   1   H
3   6   C
4   7   N
%endblock ChemicalSpeciesLabel

# Basis set variables
PAO.BasisType split
PAO.BasisSize    DZP

# General variables

#NeglNonOverlapInt   True
ElectronicTemperature  300 K
SolutionMethod	 Transiesta 
MeshCutoff           500. Ry
xc.functional         GGA           # Exchange-correlation functional
xc.authors            PBE 
SpinPolarized false 
          # Exchange-correlation version

# SCF variables

DM.MixSCF1   T
MaxSCFIterations      100           # Maximum number of SCF iter
DM.MixH               T    
DM.MixingWeight       0.03          # New DM amount for next SCF cycle
DM.Tolerance          1.d-4         # Tolerance in maximum difference
DM.UseSaveDM          true          # to use continuation files
DM.NumberPulay         6

# MD variables

MD.FinalTimeStep 1
MD.TypeOfRun CG 
MD.NumCGsteps     000
#%block GeometryConstraints
#position from 1 to 36
#position from 41 to 85
#%endblock GeometryConstraints
MD.UseSaveXV     .true.

# Output variables

WriteMullikenPop                1
WriteBands                      .false.
SaveRho                         .false.
SaveDeltaRho                    .false.
SaveHS                          .true.
SaveElectrostaticPotential      no
SaveTotalPotential              no
WriteCoorXmol                   .true.
WriteMDXmol                     .true.
WriteMDhistory                  .false.
WriteEigenvalues                yes

==================================================
==================================================

TS.Voltage 0 eV

# To highlight the simplest options
# for transiesta we here show the input
# in its reduced form. This may ONLY
# be used for non-bias calculations.
# In the next example we will reuse this
# setup but create the input options for
# a bias calculation.
%block TS.ChemPots
Left
Right
%endblock TS.ChemPots

# Define how the "Left/Right" chemical potential
# should be defined, i.e.
# the energy shift of the chemical potential
# with regards to the device "Fermi" level.
# Also, we define the contours needed to
# integegrate the equilibrium contour for
# this chemical potential.
%block TS.ChemPot.Left
  mu V/2
  contour.eq
    begin
      C-Left
      T-Left
    end
%endblock TS.ChemPot.Left
%block TS.ChemPot.Right
  mu -V/2
  contour.eq
    begin
      C-Right
      T-Right
    end
%endblock TS.ChemPot.Right

# From this energy the number of poles will be calculated
# from the energy and the temperature.
TS.Contours.Eq.Pole 2.5 eV
%block TS.Contour.C-Left
  part circle
   from -40. eV + V/2  to -10 kT + V/2
     points 25
      method g-legendre
      opt right
%endblock TS.Contour.C-Left
%block TS.Contour.T-Left
  part tail
   from prev to inf
     points 10
      method g-fermi
%endblock TS.Contour.T-Left
%block TS.Contour.C-Right
  part circle
   from -40. eV -V/2 to -10 kT -V/2
     points 25
      method g-legendre
       opt right
%endblock TS.Contour.C-Right
%block TS.Contour.T-Right
  part tail
   from prev to inf
     points 10
      method g-fermi
%endblock TS.Contour.T-Right

%block TS.Contours.nEq
  neq-1
%endblock TS.Contours.nEq
%block TS.Contour.nEq.neq-1
  part line
   from -|V|/2 - 5 kT to |V|/2 + 5 kT
     delta 0.01 eV
      method mid-rule
%endblock TS.Contour.nEq.neq-1


%block TS.Elecs
  Left
  Right
%endblock TS.Elecs


%block TS.Elec.Left
  HS elec_bot.TSHS
  chemical-potential Left
  semi-inf-direction -a3
  electrode-position begin 1
%endblock TS.Elec.Left
%block TS.Elec.Right
  HS elec_top.TSHS
  chemical-potential Right
  semi-inf-direction +a3
  electrode-position end -1
%endblock TS.Elec.Right


==================================================
==================================================


#PHTrans

TBT.DOS.A true
