327
generated by VMD
Au 0.000000 0.000000 0.000000
Au 0.000000 2.883758 0.000000
Au 0.000000 5.767517 0.000000
Au 12.487040 1.441879 0.000000
Au 12.487040 4.325637 0.000000
Au 12.487040 7.209396 0.000000
Au 14.984447 0.000000 0.000000
Au 14.984447 2.883758 0.000000
Au 14.984447 5.767517 0.000000
Au 17.481855 1.441879 0.000000
Au 17.481855 4.325637 0.000000
Au 17.481855 7.209396 0.000000
Au 2.497408 1.441879 0.000000
Au 2.497408 4.325637 0.000000
Au 2.497408 7.209396 0.000000
Au 4.994816 0.000000 0.000000
Au 4.994816 2.883758 0.000000
Au 4.994816 5.767517 0.000000
Au 7.492224 1.441879 0.000000
Au 7.492224 4.325637 0.000000
Au 7.492224 7.209396 0.000000
Au 9.989632 0.000000 0.000000
Au 9.989632 2.883758 0.000000
Au 9.989632 5.767517 0.000000
Au 11.654570 0.000000 2.354579
Au 11.654570 2.883758 2.354579
Au 11.654570 5.767517 2.354579
Au 14.151978 1.441879 2.354579
Au 14.151978 4.325637 2.354579
Au 14.151978 7.209396 2.354579
Au 16.649385 0.000000 2.354579
Au 16.649385 2.883758 2.354579
Au 16.649385 5.767517 2.354579
Au 1.664939 0.000000 2.354579
Au 1.664939 2.883758 2.354579
Au 1.664939 5.767517 2.354579
Au 19.146793 1.441879 2.354579
Au 19.146793 4.325637 2.354579
Au 19.146793 7.209396 2.354579
Au 4.162346 1.441879 2.354579
Au 4.162346 4.325637 2.354579
Au 4.162346 7.209396 2.354579
Au 6.659755 0.000000 2.354579
Au 6.659755 2.883758 2.354579
Au 6.659755 5.767517 2.354579
Au 9.157162 1.441879 2.354579
Au 9.157162 4.325637 2.354579
Au 9.157162 7.209396 2.354579
Au 0.832469 1.441879 4.709157
Au 0.832469 4.325637 4.709157
Au 0.832469 7.209396 4.709157
Au 10.822102 1.441879 4.709157
Au 10.822102 4.325637 4.709157
Au 10.822102 7.209396 4.709157
Au 13.319510 0.000000 4.709157
Au 13.319510 2.883758 4.709157
Au 13.319510 5.767517 4.709157
Au 15.816917 1.441879 4.709157
Au 15.816917 4.325637 4.709157
Au 15.816917 7.209396 4.709157
Au 18.314325 0.000000 4.709157
Au 18.314325 2.883758 4.709157
Au 18.314325 5.767517 4.709157
Au 3.329877 0.000000 4.709157
Au 3.329877 2.883758 4.709157
Au 3.329877 5.767517 4.709157
Au 5.827285 1.441879 4.709157
Au 5.827285 4.325637 4.709157
Au 5.827285 7.209396 4.709157
Au 8.324694 0.000000 4.709157
Au 8.324694 2.883758 4.709157
Au 8.324694 5.767517 4.709157
Au 0.000000 0.000000 7.063736
Au 0.000000 2.883758 7.063736
Au 0.000000 5.767517 7.063736
Au 12.487040 1.441879 7.063736
Au 12.487040 4.325637 7.063736
Au 12.487040 7.209396 7.063736
Au 14.984447 0.000000 7.063736
Au 14.984447 2.883758 7.063736
Au 14.984447 5.767517 7.063736
Au 17.481855 1.441879 7.063736
Au 17.481855 4.325637 7.063736
Au 17.481855 7.209396 7.063736
Au 2.497408 1.441879 7.063736
Au 2.497408 4.325637 7.063736
Au 2.497408 7.209396 7.063736
Au 4.994816 0.000000 7.063736
Au 4.994816 2.883758 7.063736
Au 4.994816 5.767517 7.063736
Au 7.492224 1.441879 7.063736
Au 7.492224 4.325637 7.063736
Au 7.492224 7.209396 7.063736
Au 9.989632 0.000000 7.063736
Au 9.989632 2.883758 7.063736
Au 9.989632 5.767517 7.063736
Au 11.654570 0.000000 9.418315
Au 11.654570 2.883758 9.418315
Au 11.654570 5.767517 9.418315
Au 14.151978 1.441879 9.418315
Au 14.151978 4.325637 9.418315
Au 14.151978 7.209396 9.418315
Au 16.649385 0.000000 9.418315
Au 16.649385 2.883758 9.418315
Au 16.649385 5.767517 9.418315
Au 1.664939 0.000000 9.418315
Au 1.664939 2.883758 9.418315
Au 1.664939 5.767517 9.418315
Au 19.146793 1.441879 9.418315
Au 19.146793 4.325637 9.418315
Au 19.146793 7.209396 9.418315
Au 4.162346 1.441879 9.418315
Au 4.162346 4.325637 9.418315
Au 4.162346 7.209396 9.418315
Au 6.659755 0.000000 9.418315
Au 6.659755 2.883758 9.418315
Au 6.659755 5.767517 9.418315
Au 9.157162 1.441879 9.418315
Au 9.157162 4.325637 9.418315
Au 9.157162 7.209396 9.418315
Au 0.832469 1.441879 11.772894
Au 0.832469 4.325637 11.772894
Au 0.832469 7.209396 11.772894
Au 3.329877 0.000000 11.772894
Au 3.329877 2.883758 11.772894
Au 3.329877 5.767517 11.772894
Au 5.827285 1.441879 11.772894
Au 5.827285 4.325637 11.772894
Au 5.827285 7.209396 11.772894
Au 8.324694 0.000000 11.772894
Au 8.324694 2.883758 11.772894
Au 8.324694 5.767517 11.772894
H 14.477000 3.412300 14.127473
H 2.234310 3.403530 14.127473
C 8.355210 3.398390 14.865872
C 14.663600 3.402080 15.212173
C 2.047570 3.402040 15.212173
H 15.260900 2.507980 15.441273
H 1.446430 2.512240 15.447673
H 1.446500 4.291200 15.450273
H 15.268600 4.286860 15.456673
C 13.361700 3.400850 16.002073
C 3.349470 3.401030 16.002172
H 13.193100 1.238170 16.065073
H 3.513810 1.238220 16.072474
N 8.355600 3.400300 16.076874
H 3.501480 5.563660 16.099073
H 13.214000 5.563460 16.106274
C 12.723400 2.186960 16.343674
C 3.985370 2.187020 16.347874
C 3.978390 4.614260 16.362873
C 12.735300 4.614110 16.367172
H 9.845200 0.753180 16.881273
H 6.864270 0.752640 16.898373
H 6.852250 6.055000 16.936672
H 9.860700 6.055200 16.954372
C 11.498300 2.164530 17.046072
H 11.449200 0.000000 17.048872
C 5.210520 2.164570 17.050173
H 5.258800 0.000050 17.053772
C 5.203490 4.635050 17.065472
C 11.510100 4.634930 17.069473
H 5.242720 6.799600 17.089073
H 11.471600 6.799500 17.093773
C 10.822300 0.839380 17.381073
C 5.883370 0.839230 17.390673
C 10.895900 3.399290 17.411573
C 5.815350 3.399380 17.411573
C 5.868740 5.960000 17.422073
C 10.848000 5.960000 17.431772
C 8.355600 3.399020 17.487972
C 7.109520 3.398470 18.167273
C 9.601700 3.398470 18.167273
H 10.651100 0.733900 18.462572
H 6.046350 0.733720 18.473373
H 6.024880 6.056500 18.506672
H 10.700700 6.056600 18.517572
C 7.132740 3.396980 19.582872
C 9.578500 3.396990 19.582872
H 10.527700 3.396120 20.123173
H 6.183460 3.396210 20.123173
C 8.355610 3.396180 20.287172
H 8.355610 3.394790 21.378372
Au 0.832469 1.441879 23.732950
Au 0.832469 4.325637 23.732950
Au 0.832469 7.209396 23.732950
Au 10.822102 1.441879 23.732950
Au 10.822102 4.325637 23.732950
Au 10.822102 7.209396 23.732950
Au 13.319510 0.000000 23.732950
Au 13.319510 2.883758 23.732950
Au 13.319510 5.767517 23.732950
Au 15.816917 1.441879 23.732950
Au 15.816917 4.325637 23.732950
Au 15.816917 7.209396 23.732950
Au 18.314325 0.000000 23.732950
Au 18.314325 2.883758 23.732950
Au 18.314325 5.767517 23.732950
Au 3.329877 0.000000 23.732950
Au 3.329877 2.883758 23.732950
Au 3.329877 5.767517 23.732950
Au 5.827285 1.441879 23.732950
Au 5.827285 4.325637 23.732950
Au 5.827285 7.209396 23.732950
Au 8.324694 0.000000 23.732950
Au 8.324694 2.883758 23.732950
Au 8.324694 5.767517 23.732950
Au 11.654570 0.000000 26.087551
Au 11.654570 2.883758 26.087551
Au 11.654570 5.767517 26.087551
Au 14.151978 1.441879 26.087551
Au 14.151978 4.325637 26.087551
Au 14.151978 7.209396 26.087551
Au 16.649385 0.000000 26.087551
Au 16.649385 2.883758 26.087551
Au 16.649385 5.767517 26.087551
Au 1.664939 0.000000 26.087551
Au 1.664939 2.883758 26.087551
Au 1.664939 5.767517 26.087551
Au 19.146793 1.441879 26.087551
Au 19.146793 4.325637 26.087551
Au 19.146793 7.209396 26.087551
Au 4.162346 1.441879 26.087551
Au 4.162346 4.325637 26.087551
Au 4.162346 7.209396 26.087551
Au 6.659755 0.000000 26.087551
Au 6.659755 2.883758 26.087551
Au 6.659755 5.767517 26.087551
Au 9.157162 1.441879 26.087551
Au 9.157162 4.325637 26.087551
Au 9.157162 7.209396 26.087551
Au 0.000000 0.000000 28.442150
Au 0.000000 2.883758 28.442150
Au 0.000000 5.767517 28.442150
Au 12.487040 1.441879 28.442150
Au 12.487040 4.325637 28.442150
Au 12.487040 7.209396 28.442150
Au 14.984447 0.000000 28.442150
Au 14.984447 2.883758 28.442150
Au 14.984447 5.767517 28.442150
Au 17.481855 1.441879 28.442150
Au 17.481855 4.325637 28.442150
Au 17.481855 7.209396 28.442150
Au 2.497408 1.441879 28.442150
Au 2.497408 4.325637 28.442150
Au 2.497408 7.209396 28.442150
Au 4.994816 0.000000 28.442150
Au 4.994816 2.883758 28.442150
Au 4.994816 5.767517 28.442150
Au 7.492224 1.441879 28.442150
Au 7.492224 4.325637 28.442150
Au 7.492224 7.209396 28.442150
Au 9.989632 0.000000 28.442150
Au 9.989632 2.883758 28.442150
Au 9.989632 5.767517 28.442150
Au 0.832469 1.441879 30.796650
Au 0.832469 4.325637 30.796650
Au 0.832469 7.209396 30.796650
Au 13.319509 2.883758 30.796650
Au 13.319509 5.767516 30.796650
Au 13.319509 8.651275 30.796650
Au 15.816916 1.441879 30.796650
Au 15.816916 4.325637 30.796650
Au 15.816916 7.209396 30.796650
Au 18.314323 2.883758 30.796650
Au 18.314323 5.767516 30.796650
Au 18.314323 8.651275 30.796650
Au 3.329877 2.883758 30.796650
Au 3.329877 5.767516 30.796650
Au 3.329877 8.651275 30.796650
Au 5.827285 1.441879 30.796650
Au 5.827285 4.325637 30.796650
Au 5.827285 7.209396 30.796650
Au 8.324693 2.883758 30.796650
Au 8.324693 5.767516 30.796650
Au 8.324693 8.651275 30.796650
Au 10.822101 1.441879 30.796650
Au 10.822101 4.325637 30.796650
Au 10.822101 7.209396 30.796650
Au 12.487039 1.441879 33.151249
Au 12.487039 4.325637 33.151249
Au 12.487039 7.209396 33.151249
Au 14.984447 2.883758 33.151249
Au 14.984447 5.767516 33.151249
Au 14.984447 8.651275 33.151249
Au 17.481853 1.441879 33.151249
Au 17.481853 4.325637 33.151249
Au 17.481853 7.209396 33.151249
Au 2.497408 1.441879 33.151249
Au 2.497408 4.325637 33.151249
Au 2.497408 7.209396 33.151249
Au 19.979261 2.883758 33.151249
Au 19.979261 5.767516 33.151249
Au 19.979261 8.651275 33.151249
Au 4.994815 2.883758 33.151249
Au 4.994815 5.767516 33.151249
Au 4.994815 8.651275 33.151249
Au 7.492224 1.441879 33.151249
Au 7.492224 4.325637 33.151249
Au 7.492224 7.209396 33.151249
Au 9.989631 2.883758 33.151249
Au 9.989631 5.767516 33.151249
Au 9.989631 8.651275 33.151249
Au 1.664938 2.883758 35.505852
Au 1.664938 5.767516 35.505852
Au 1.664938 8.651275 35.505852
Au 11.654571 2.883758 35.505852
Au 11.654571 5.767516 35.505852
Au 11.654571 8.651275 35.505852
Au 14.151979 1.441879 35.505852
Au 14.151979 4.325637 35.505852
Au 14.151979 7.209396 35.505852
Au 16.649385 2.883758 35.505852
Au 16.649385 5.767516 35.505852
Au 16.649385 8.651275 35.505852
Au 19.146793 1.441879 35.505852
Au 19.146793 4.325637 35.505852
Au 19.146793 7.209396 35.505852
Au 4.162346 1.441879 35.505852
Au 4.162346 4.325637 35.505852
Au 4.162346 7.209396 35.505852
Au 6.659754 2.883758 35.505852
Au 6.659754 5.767516 35.505852
Au 6.659754 8.651275 35.505852
Au 9.157163 1.441879 35.505852
Au 9.157163 4.325637 35.505852
Au 9.157163 7.209396 35.505852
