72
generated by VMD
Au 0.832469 1.441879 30.796650
Au 0.832469 4.325637 30.796650
Au 0.832469 7.209396 30.796650
Au 13.319509 2.883758 30.796650
Au 13.319509 5.767516 30.796650
Au 13.319509 8.651275 30.796650
Au 15.816916 1.441879 30.796650
Au 15.816916 4.325637 30.796650
Au 15.816916 7.209396 30.796650
Au 18.314323 2.883758 30.796650
Au 18.314323 5.767516 30.796650
Au 18.314323 8.651275 30.796650
Au 3.329877 2.883758 30.796650
Au 3.329877 5.767516 30.796650
Au 3.329877 8.651275 30.796650
Au 5.827285 1.441879 30.796650
Au 5.827285 4.325637 30.796650
Au 5.827285 7.209396 30.796650
Au 8.324693 2.883758 30.796650
Au 8.324693 5.767516 30.796650
Au 8.324693 8.651275 30.796650
Au 10.822101 1.441879 30.796650
Au 10.822101 4.325637 30.796650
Au 10.822101 7.209396 30.796650
Au 12.487039 1.441879 33.151249
Au 12.487039 4.325637 33.151249
Au 12.487039 7.209396 33.151249
Au 14.984447 2.883758 33.151249
Au 14.984447 5.767516 33.151249
Au 14.984447 8.651275 33.151249
Au 17.481853 1.441879 33.151249
Au 17.481853 4.325637 33.151249
Au 17.481853 7.209396 33.151249
Au 2.497408 1.441879 33.151249
Au 2.497408 4.325637 33.151249
Au 2.497408 7.209396 33.151249
Au 19.979261 2.883758 33.151249
Au 19.979261 5.767516 33.151249
Au 19.979261 8.651275 33.151249
Au 4.994815 2.883758 33.151249
Au 4.994815 5.767516 33.151249
Au 4.994815 8.651275 33.151249
Au 7.492224 1.441879 33.151249
Au 7.492224 4.325637 33.151249
Au 7.492224 7.209396 33.151249
Au 9.989631 2.883758 33.151249
Au 9.989631 5.767516 33.151249
Au 9.989631 8.651275 33.151249
Au 1.664938 2.883758 35.505852
Au 1.664938 5.767516 35.505852
Au 1.664938 8.651275 35.505852
Au 11.654571 2.883758 35.505852
Au 11.654571 5.767516 35.505852
Au 11.654571 8.651275 35.505852
Au 14.151979 1.441879 35.505852
Au 14.151979 4.325637 35.505852
Au 14.151979 7.209396 35.505852
Au 16.649385 2.883758 35.505852
Au 16.649385 5.767516 35.505852
Au 16.649385 8.651275 35.505852
Au 19.146793 1.441879 35.505852
Au 19.146793 4.325637 35.505852
Au 19.146793 7.209396 35.505852
Au 4.162346 1.441879 35.505852
Au 4.162346 4.325637 35.505852
Au 4.162346 7.209396 35.505852
Au 6.659754 2.883758 35.505852
Au 6.659754 5.767516 35.505852
Au 6.659754 8.651275 35.505852
Au 9.157163 1.441879 35.505852
Au 9.157163 4.325637 35.505852
Au 9.157163 7.209396 35.505852
