72
 generated by VMD
Ag       14.444141        3.335732        4.717437
Ag        0.000000        3.335732        4.717437
Ag       11.555313        3.335732        4.717437
Ag        8.666485        3.335732        4.717437
Ag        5.777657        3.335732        4.717437
Ag        2.888828        3.335732        4.717437
Ag       14.444141        8.339329        4.717437
Ag        0.000000        8.339329        4.717437
Ag       11.555313        8.339329        4.717437
Ag        8.666485        8.339329        4.717437
Ag        5.777657        8.339329        4.717437
Ag        2.888828        8.339329        4.717437
Ag       12.999726        0.833934        4.717435
Ag       10.110897        0.833934        4.717435
Ag        7.222069        0.833934        4.717435
Ag        4.333241        0.833934        4.717435
Ag        1.444412        0.833934        4.717435
Ag       12.999726        5.837531        4.717435
Ag       10.110897        5.837531        4.717435
Ag        7.222069        5.837531        4.717435
Ag        4.333241        5.837531        4.717435
Ag        1.444412        5.837531        4.717435
Ag       14.444141        1.667866        2.358719
Ag        0.000000        1.667866        2.358719
Ag       11.555313        1.667866        2.358719
Ag        8.666485        1.667866        2.358719
Ag        5.777657        1.667866        2.358719
Ag        2.888828        1.667866        2.358719
Ag       14.444141        6.671463        2.358719
Ag        0.000000        6.671463        2.358719
Ag       11.555313        6.671463        2.358719
Ag        8.666485        6.671463        2.358719
Ag        5.777657        6.671463        2.358719
Ag        2.888828        6.671463        2.358719
Ag       12.999726        4.169666        2.358716
Ag       10.110897        4.169666        2.358716
Ag        7.222069        4.169666        2.358716
Ag        4.333241        4.169666        2.358716
Ag        1.444412        4.169666        2.358716
Ag       12.999726        9.173263        2.358716
Ag       10.110897        9.173263        2.358716
Ag        7.222069        9.173263        2.358716
Ag        4.333241        9.173263        2.358716
Ag        1.444412        9.173263        2.358716
Ag       14.444141        0.000000        0.000000
Ag        0.000000        0.000000        0.000000
Ag       14.444141       10.007195        0.000000
Ag        0.000000       10.007195        0.000000
Ag       14.444141        5.003597        0.000000
Ag        0.000000        5.003597        0.000000
Ag       11.555313        0.000000        0.000000
Ag       11.555313       10.007195        0.000000
Ag       11.555313        5.003597        0.000000
Ag        8.666485        0.000000        0.000000
Ag        8.666485       10.007195        0.000000
Ag        8.666485        5.003597        0.000000
Ag        5.777657        0.000000        0.000000
Ag        5.777657       10.007195        0.000000
Ag        5.777657        5.003597        0.000000
Ag        2.888828        0.000000        0.000000
Ag        2.888828       10.007195        0.000000
Ag        2.888828        5.003597        0.000000
Ag       12.999726        2.501800        0.000000
Ag       10.110897        2.501800        0.000000
Ag        7.222069        2.501800        0.000000
Ag        4.333241        2.501800        0.000000
Ag        1.444412        2.501800        0.000000
Ag       12.999726        7.505397        0.000000
Ag       10.110897        7.505397        0.000000
Ag        7.222069        7.505397        0.000000
Ag        4.333241        7.505397        0.000000
Ag        1.444412        7.505397        0.000000