SystemName  AgDMP 
SystemLabel AgDMP

TS.SaveHS   .true.
TS.SaveLead .true.

# ATOMIC POSITIONS
# Atomic coordinates
NumberOfAtoms 322
AtomicCoordinatesFormat Ang
%block AtomicCoordinatesAndAtomicSpecies
0.000000 0.000000 23.815420 1
0.000000 0.000000 37.967731 1
0.000000 0.000000 30.891577 1
11.555313 0.000000 23.815420 1
11.555313 0.000000 37.967731 1
11.555313 0.000000 30.891577 1
8.666485 0.000000 23.815420 1
8.666485 0.000000 37.967731 1
8.666485 0.000000 30.891577 1
5.777657 0.000000 23.815420 1
5.777657 0.000000 37.967731 1
5.777657 0.000000 30.891577 1
2.888828 0.000000 23.815420 1
2.888828 0.000000 37.967731 1
2.888828 0.000000 30.891577 1
0.000000 5.003597 23.815420 1
0.000000 5.003597 37.967731 1
0.000000 5.003597 30.891577 1
11.555313 5.003597 23.815420 1
11.555313 5.003597 37.967731 1
11.555313 5.003597 30.891577 1
8.666485 5.003597 23.815420 1
8.666485 5.003597 37.967731 1
8.666485 5.003597 30.891577 1
5.777657 5.003597 23.815420 1
5.777657 5.003597 37.967731 1
5.777657 5.003597 30.891577 1
2.888828 5.003597 23.815420 1
2.888828 5.003597 37.967731 1
2.888828 5.003597 30.891577 1
0.000000 1.667866 26.174139 1
0.000000 1.667866 33.250294 1
11.555313 1.667866 26.174139 1
11.555313 1.667866 33.250294 1
8.666485 1.667866 26.174139 1
8.666485 1.667866 33.250294 1
5.777657 1.667866 26.174139 1
5.777657 1.667866 33.250294 1
2.888828 1.667866 26.174139 1
2.888828 1.667866 33.250294 1
0.000000 6.671463 26.174139 1
0.000000 6.671463 33.250294 1
11.555313 6.671463 26.174139 1
11.555313 6.671463 33.250294 1
8.666485 6.671463 26.174139 1
8.666485 6.671463 33.250294 1
5.777657 6.671463 26.174139 1
5.777657 6.671463 33.250294 1
2.888828 6.671463 26.174139 1
2.888828 6.671463 33.250294 1
0.000000 3.335732 28.532856 1
0.000000 3.335732 35.609013 1
11.555313 3.335732 28.532856 1
11.555313 3.335732 35.609013 1
8.666485 3.335732 28.532856 1
8.666485 3.335732 35.609013 1
5.777657 3.335732 28.532856 1
5.777657 3.335732 35.609013 1
2.888828 3.335732 28.532856 1
2.888828 3.335732 35.609013 1
0.000000 8.339329 28.532856 1
0.000000 8.339329 35.609013 1
11.555313 8.339329 28.532856 1
11.555313 8.339329 35.609013 1
8.666485 8.339329 28.532856 1
8.666485 8.339329 35.609013 1
5.777657 8.339329 28.532856 1
5.777657 8.339329 35.609013 1
2.888828 8.339329 28.532856 1
2.888828 8.339329 35.609013 1
12.999726 4.169666 26.174137 1
12.999726 4.169666 33.250290 1
10.110897 4.169666 26.174137 1
10.110897 4.169666 33.250290 1
7.222069 4.169666 26.174137 1
7.222069 4.169666 33.250290 1
4.333241 4.169666 26.174137 1
4.333241 4.169666 33.250290 1
1.444412 4.169666 26.174137 1
1.444412 4.169666 33.250290 1
12.999726 9.173263 26.174137 1
12.999726 9.173263 33.250290 1
10.110897 9.173263 26.174137 1
10.110897 9.173263 33.250290 1
7.222069 9.173263 26.174137 1
7.222069 9.173263 33.250290 1
4.333241 9.173263 26.174137 1
4.333241 9.173263 33.250290 1
1.444412 9.173263 26.174137 1
1.444412 9.173263 33.250290 1
12.999726 0.833934 28.532856 1
12.999726 0.833934 35.609009 1
10.110897 0.833934 28.532856 1
10.110897 0.833934 35.609009 1
7.222069 0.833934 28.532856 1
7.222069 0.833934 35.609009 1
4.333241 0.833934 28.532856 1
4.333241 0.833934 35.609009 1
1.444412 0.833934 28.532856 1
1.444412 0.833934 35.609009 1
12.999726 5.837531 28.532856 1
12.999726 5.837531 35.609009 1
10.110897 5.837531 28.532856 1
10.110897 5.837531 35.609009 1
7.222069 5.837531 28.532856 1
7.222069 5.837531 35.609009 1
4.333241 5.837531 28.532856 1
4.333241 5.837531 35.609009 1
1.444412 5.837531 28.532856 1
1.444412 5.837531 35.609009 1
12.999726 2.501800 30.891573 1
12.999726 2.501800 23.815420 1
12.999726 2.501800 37.967731 1
10.110897 2.501800 30.891573 1
10.110897 2.501800 23.815420 1
10.110897 2.501800 37.967731 1
7.222069 2.501800 30.891573 1
7.222069 2.501800 23.815420 1
7.222069 2.501800 37.967731 1
4.333241 2.501800 30.891573 1
4.333241 2.501800 23.815420 1
4.333241 2.501800 37.967731 1
1.444412 2.501800 30.891573 1
1.444412 2.501800 23.815420 1
1.444412 2.501800 37.967731 1
12.999726 7.505397 30.891573 1
12.999726 7.505397 23.815420 1
12.999726 7.505397 37.967731 1
10.110897 7.505397 30.891573 1
10.110897 7.505397 23.815420 1
10.110897 7.505397 37.967731 1
7.222069 7.505397 30.891573 1
7.222069 7.505397 23.815420 1
7.222069 7.505397 37.967731 1
4.333241 7.505397 30.891573 1
4.333241 7.505397 23.815420 1
4.333241 7.505397 37.967731 1
1.444412 7.505397 30.891573 1
1.444412 7.505397 23.815420 1
1.444412 7.505397 37.967731 1
9.379444 5.000151 20.731464 2
12.432186 5.142528 16.833151 2
11.692249 0.987177 17.647951 2
10.149246 6.567091 18.852333 2
10.825672 6.766226 17.220413 2
9.129068 6.296536 17.433697 2
8.890600 1.558377 19.877626 2
8.530529 0.923564 18.264997 2
9.972023 0.362649 19.122852 2
14.020556 1.845628 17.035910 2
14.183316 3.500716 16.406549 2
13.344864 2.258487 15.450857 2
5.064697 5.000151 20.731464 2
2.011955 5.142528 16.833151 2
2.751892 0.987177 17.647951 2
4.294895 6.567091 18.852333 2
3.618471 6.766226 17.220413 2
5.315073 6.296536 17.433697 2
5.553541 1.558377 19.877626 2
5.913612 0.923564 18.264997 2
4.472120 0.362649 19.122852 2
0.423584 1.845628 17.035910 2
0.260826 3.500716 16.406549 2
1.099279 2.258487 15.450857 2
7.222071 5.595085 21.815420 2
9.748817 3.696914 18.361687 3
8.467718 4.058194 19.031483 3
10.556866 4.709392 17.800646 3
10.163837 2.346307 18.307112 3
8.435406 4.740296 20.251848 3
12.199324 3.013325 17.123146 3
11.773399 4.347951 17.197187 3
11.373543 2.031898 17.679274 3
10.145638 6.157821 17.831598 3
9.347485 1.243600 18.929802 3
13.503195 2.635926 16.474670 3
4.695322 3.696914 18.361687 3
5.976425 4.058194 19.031483 3
3.887276 4.709392 17.800646 3
4.280304 2.346307 18.307112 3
6.008736 4.740296 20.251848 3
2.244816 3.013325 17.123146 3
2.670742 4.347951 17.197187 3
3.070601 2.031898 17.679274 3
4.298504 6.157821 17.831598 3
5.096657 1.243600 18.929802 3
0.940948 2.635926 16.474670 3
7.222071 3.725753 18.450066 3
7.222071 5.073498 20.857782 3
7.222071 2.501800 16.218130 3
7.222071 3.062972 17.253258 4
0.000000 0.000000 0.000000 1
0.000000 0.000000 7.076156 1
11.555313 0.000000 0.000000 1
11.555313 0.000000 7.076156 1
8.666485 0.000000 0.000000 1
8.666485 0.000000 7.076156 1
5.777657 0.000000 0.000000 1
5.777657 0.000000 7.076156 1
2.888828 0.000000 0.000000 1
2.888828 0.000000 7.076156 1
0.000000 5.003597 0.000000 1
0.000000 5.003597 14.152311 1
0.000000 5.003597 7.076156 1
11.555313 5.003597 0.000000 1
11.555313 5.003597 14.152311 1
11.555313 5.003597 7.076156 1
8.666485 5.003597 0.000000 1
8.666485 5.003597 14.152311 1
8.666485 5.003597 7.076156 1
5.777657 5.003597 0.000000 1
5.777657 5.003597 14.152311 1
5.777657 5.003597 7.076156 1
2.888828 5.003597 0.000000 1
2.888828 5.003597 14.152311 1
2.888828 5.003597 7.076156 1
0.000000 1.667866 2.358719 1
0.000000 1.667866 9.434874 1
11.555313 1.667866 2.358719 1
11.555313 1.667866 9.434874 1
8.666485 1.667866 2.358719 1
8.666485 1.667866 9.434874 1
5.777657 1.667866 2.358719 1
5.777657 1.667866 9.434874 1
2.888828 1.667866 2.358719 1
2.888828 1.667866 9.434874 1
0.000000 6.671463 2.358719 1
0.000000 6.671463 9.434874 1
11.555313 6.671463 2.358719 1
11.555313 6.671463 9.434874 1
8.666485 6.671463 2.358719 1
8.666485 6.671463 9.434874 1
5.777657 6.671463 2.358719 1
5.777657 6.671463 9.434874 1
2.888828 6.671463 2.358719 1
2.888828 6.671463 9.434874 1
0.000000 3.335732 4.717437 1
0.000000 3.335732 11.793593 1
11.555313 3.335732 4.717437 1
11.555313 3.335732 11.793593 1
8.666485 3.335732 4.717437 1
8.666485 3.335732 11.793593 1
5.777657 3.335732 4.717437 1
5.777657 3.335732 11.793593 1
2.888828 3.335732 4.717437 1
2.888828 3.335732 11.793593 1
0.000000 8.339329 4.717437 1
0.000000 8.339329 11.793593 1
11.555313 8.339329 4.717437 1
11.555313 8.339329 11.793593 1
8.666485 8.339329 4.717437 1
8.666485 8.339329 11.793593 1
5.777657 8.339329 4.717437 1
5.777657 8.339329 11.793593 1
2.888828 8.339329 4.717437 1
2.888828 8.339329 11.793593 1
12.999726 4.169666 2.358716 1
12.999726 4.169666 9.434872 1
10.110897 4.169666 2.358716 1
10.110897 4.169666 9.434872 1
7.222069 4.169666 2.358716 1
7.222069 4.169666 9.434872 1
4.333241 4.169666 2.358716 1
4.333241 4.169666 9.434872 1
1.444412 4.169666 2.358716 1
1.444412 4.169666 9.434872 1
12.999726 9.173263 2.358716 1
12.999726 9.173263 9.434872 1
10.110897 9.173263 2.358716 1
10.110897 9.173263 9.434872 1
7.222069 9.173263 2.358716 1
7.222069 9.173263 9.434872 1
4.333241 9.173263 2.358716 1
4.333241 9.173263 9.434872 1
1.444412 9.173263 2.358716 1
1.444412 9.173263 9.434872 1
12.999726 0.833934 4.717435 1
12.999726 0.833934 11.793590 1
10.110897 0.833934 4.717435 1
10.110897 0.833934 11.793590 1
7.222069 0.833934 4.717435 1
7.222069 0.833934 11.793590 1
4.333241 0.833934 4.717435 1
4.333241 0.833934 11.793590 1
1.444412 0.833934 4.717435 1
1.444412 0.833934 11.793590 1
12.999726 5.837531 4.717435 1
12.999726 5.837531 11.793590 1
10.110897 5.837531 4.717435 1
10.110897 5.837531 11.793590 1
7.222069 5.837531 4.717435 1
7.222069 5.837531 11.793590 1
4.333241 5.837531 4.717435 1
4.333241 5.837531 11.793590 1
1.444412 5.837531 4.717435 1
1.444412 5.837531 11.793590 1
12.999726 2.501800 7.076153 1
12.999726 2.501800 0.000000 1
10.110897 2.501800 7.076153 1
10.110897 2.501800 0.000000 1
7.222069 2.501800 7.076153 1
7.222069 2.501800 0.000000 1
7.222069 2.501800 14.152311 1
4.333241 2.501800 7.076153 1
4.333241 2.501800 0.000000 1
1.444412 2.501800 7.076153 1
1.444412 2.501800 0.000000 1
12.999726 7.505397 7.076153 1
12.999726 7.505397 0.000000 1
12.999726 7.505397 14.152311 1
10.110897 7.505397 7.076153 1
10.110897 7.505397 0.000000 1
10.110897 7.505397 14.152311 1
7.222069 7.505397 7.076153 1
7.222069 7.505397 0.000000 1
7.222069 7.505397 14.152311 1
4.333241 7.505397 7.076153 1
4.333241 7.505397 0.000000 1
4.333241 7.505397 14.152311 1
1.444412 7.505397 7.076153 1
1.444412 7.505397 0.000000 1
1.444412 7.505397 14.152311 1
%endblock AtomicCoordinatesAndAtomicSpecies

# UNIT CELL
LatticeConstant       1.0 Ang 
%block LatticeVectors
       14.444141         0.000000         0.0000000
        0.000000        10.007195         0.0000000
        0.000000         0.000000        40.3264470
%endblock LatticeVectors

#Zaxis is the top gold top bound So position of top layer plus distance in repetition

# K-points

%block kgrid_Monkhorst_Pack
1   0   0   0.0
0   1   0   0.0
0   0   10  0.0
%endblock kgrid_Monkhorst_Pack


# Chemical species

NumberOfSpecies 4
%block ChemicalSpeciesLabel
1  47  Ag
2   1   H
3   6   C
4   7   N
%endblock ChemicalSpeciesLabel

# Basis set variables
PAO.BasisType split
PAO.BasisSize    DZP


# General variables

#NeglNonOverlapInt   True
ElectronicTemperature  300 K
SolutionMethod	 Transiesta 
MeshCutoff           500. Ry
xc.functional         GGA           # Exchange-correlation functional
xc.authors            PBE 
SpinPolarized false 
          # Exchange-correlation version

# SCF variables

DM.MixSCF1	      true
MaxSCFIterations      500           # Maximum number of SCF iter
DM.MixH               T    
DM.MixingWeight       0.01          # New DM amount for next SCF cycle
DM.Tolerance          1.d-4         # Tolerance in maximum difference
DM.UseSaveDM          false          # to use continuation files
DM.NumberPulay        15

# MD variables

MD.FinalTimeStep 1
MD.TypeOfRun CG 
MD.NumCGsteps     000
#%block GeometryConstraints
#position from 1 to 36
#position from 41 to 85
#%endblock GeometryConstraints
MD.UseSaveXV     .true.

# Output variables

WriteMullikenPop                1
WriteBands                      .false.
SaveRho                         .false.
SaveDeltaRho                    .false.
SaveHS                          .true.
SaveElectrostaticPotential      no
SaveTotalPotential              no
WriteCoorXmol                   .true.
WriteMDXmol                     .true.
WriteMDhistory                  .false.
WriteEigenvalues                yes

==================================================
==================================================

TS.Voltage 0 eV

# To highlight the simplest options
# for transiesta we here show the input
# in its reduced form. This may ONLY
# be used for non-bias calculations.
# In the next example we will reuse this
# setup but create the input options for
# a bias calculation.
%block TS.ChemPots
Left
Right
%endblock TS.ChemPots

# Define how the "Left/Right" chemical potential
# should be defined, i.e.
# the energy shift of the chemical potential
# with regards to the device "Fermi" level.
# Also, we define the contours needed to
# integegrate the equilibrium contour for
# this chemical potential.
%block TS.ChemPot.Left
  mu V/2
  contour.eq
    begin
      C-Left
      T-Left
    end
%endblock TS.ChemPot.Left
%block TS.ChemPot.Right
  mu -V/2
  contour.eq
    begin
      C-Right
      T-Right
    end
%endblock TS.ChemPot.Right

# From this energy the number of poles will be calculated
# from the energy and the temperature.
TS.Contours.Eq.Pole 2.5 eV
%block TS.Contour.C-Left
  part circle
   from -40. eV + V/2  to -10 kT + V/2
     points 25
      method g-legendre
      opt right
%endblock TS.Contour.C-Left
%block TS.Contour.T-Left
  part tail
   from prev to inf
     points 10
      method g-fermi
%endblock TS.Contour.T-Left
%block TS.Contour.C-Right
  part circle
   from -40. eV -V/2 to -10 kT -V/2
     points 25
      method g-legendre
       opt right
%endblock TS.Contour.C-Right
%block TS.Contour.T-Right
  part tail
   from prev to inf
     points 10
      method g-fermi
%endblock TS.Contour.T-Right

%block TS.Contours.nEq
  neq-1
%endblock TS.Contours.nEq
%block TS.Contour.nEq.neq-1
  part line
   from -|V|/2 - 5 kT to |V|/2 + 5 kT
     delta 0.01 eV
      method mid-rule
%endblock TS.Contour.nEq.neq-1


%block TS.Elecs
  Left
  Right
%endblock TS.Elecs


%block TS.Elec.Left
  HS elec_bot.TSHS
  chemical-potential Left
  semi-inf-direction -a3
  electrode-position begin 1
%endblock TS.Elec.Left
%block TS.Elec.Right
  HS elec_bot.TSHS
  chemical-potential Right
  semi-inf-direction +a3
  electrode-position end -1
%endblock TS.Elec.Right


==================================================
==================================================


#PHTrans

TBT.DOS.A true
