# Atomic coordinates
NumberOfAtoms 385
AtomicCoordinatesFormat Ang
%block AtomicCoordinatesAndAtomicSpecies
0.000000 0.000000 23.815420 1
0.000000 0.000000 37.967731 1
-14.444141 0.000000 23.815420 1
-14.444141 0.000000 37.967731 1
0.000000 10.007195 23.815420 1
0.000000 10.007195 37.967731 1
-14.444141 10.007195 23.815420 1
-14.444141 10.007195 37.967731 1
0.000000 0.000000 30.891577 1
-14.444141 0.000000 30.891577 1
0.000000 10.007195 30.891577 1
-14.444141 10.007195 30.891577 1
-2.888828 0.000000 23.815420 1
-2.888828 0.000000 37.967731 1
-2.888828 10.007195 23.815420 1
-2.888828 10.007195 37.967731 1
-2.888828 0.000000 30.891577 1
-2.888828 10.007195 30.891577 1
-5.777657 0.000000 23.815420 1
-5.777657 0.000000 37.967731 1
-5.777657 10.007195 23.815420 1
-5.777657 10.007195 37.967731 1
-5.777657 0.000000 30.891577 1
-5.777657 10.007195 30.891577 1
-8.666485 0.000000 23.815420 1
-8.666485 0.000000 37.967731 1
-8.666485 10.007195 23.815420 1
-8.666485 10.007195 37.967731 1
-8.666485 0.000000 30.891577 1
-8.666485 10.007195 30.891577 1
-11.555313 0.000000 23.815420 1
-11.555313 0.000000 37.967731 1
-11.555313 10.007195 23.815420 1
-11.555313 10.007195 37.967731 1
-11.555313 0.000000 30.891577 1
-11.555313 10.007195 30.891577 1
0.000000 5.003597 23.815420 1
0.000000 5.003597 37.967731 1
-14.444141 5.003597 23.815420 1
-14.444141 5.003597 37.967731 1
0.000000 5.003597 30.891577 1
-14.444141 5.003597 30.891577 1
-2.888828 5.003597 23.815420 1
-2.888828 5.003597 37.967731 1
-2.888828 5.003597 30.891577 1
-5.777657 5.003597 23.815420 1
-5.777657 5.003597 37.967731 1
-5.777657 5.003597 30.891577 1
-8.666485 5.003597 23.815420 1
-8.666485 5.003597 37.967731 1
-8.666485 5.003597 30.891577 1
-11.555313 5.003597 23.815420 1
-11.555313 5.003597 37.967731 1
-11.555313 5.003597 30.891577 1
0.000000 1.667866 26.174139 1
-14.444141 1.667866 26.174139 1
0.000000 1.667866 33.250294 1
-14.444141 1.667866 33.250294 1
-2.888828 1.667866 26.174139 1
-2.888828 1.667866 33.250294 1
-5.777657 1.667866 26.174139 1
-5.777657 1.667866 33.250294 1
-8.666485 1.667866 26.174139 1
-8.666485 1.667866 33.250294 1
-11.555313 1.667866 26.174139 1
-11.555313 1.667866 33.250294 1
0.000000 6.671463 26.174139 1
-14.444141 6.671463 26.174139 1
0.000000 6.671463 33.250294 1
-14.444141 6.671463 33.250294 1
-2.888828 6.671463 26.174139 1
-2.888828 6.671463 33.250294 1
-5.777657 6.671463 26.174139 1
-5.777657 6.671463 33.250294 1
-8.666485 6.671463 26.174139 1
-8.666485 6.671463 33.250294 1
-11.555313 6.671463 26.174139 1
-11.555313 6.671463 33.250294 1
0.000000 3.335732 28.532856 1
-14.444141 3.335732 28.532856 1
0.000000 3.335732 35.609013 1
-14.444141 3.335732 35.609013 1
-2.888828 3.335732 28.532856 1
-2.888828 3.335732 35.609013 1
-5.777657 3.335732 28.532856 1
-5.777657 3.335732 35.609013 1
-8.666485 3.335732 28.532856 1
-8.666485 3.335732 35.609013 1
-11.555313 3.335732 28.532856 1
-11.555313 3.335732 35.609013 1
0.000000 8.339329 28.532856 1
-14.444141 8.339329 28.532856 1
0.000000 8.339329 35.609013 1
-14.444141 8.339329 35.609013 1
-2.888828 8.339329 28.532856 1
-2.888828 8.339329 35.609013 1
-5.777657 8.339329 28.532856 1
-5.777657 8.339329 35.609013 1
-8.666485 8.339329 28.532856 1
-8.666485 8.339329 35.609013 1
-11.555313 8.339329 28.532856 1
-11.555313 8.339329 35.609013 1
-1.444415 4.169666 26.174137 1
-1.444415 4.169666 33.250290 1
-4.333244 4.169666 26.174137 1
-4.333244 4.169666 33.250290 1
-7.222072 4.169666 26.174137 1
-7.222072 4.169666 33.250290 1
-10.110900 4.169666 26.174137 1
-10.110900 4.169666 33.250290 1
-12.999729 4.169666 26.174137 1
-12.999729 4.169666 33.250290 1
-1.444415 9.173263 26.174137 1
-1.444415 9.173263 33.250290 1
-4.333244 9.173263 26.174137 1
-4.333244 9.173263 33.250290 1
-7.222072 9.173263 26.174137 1
-7.222072 9.173263 33.250290 1
-10.110900 9.173263 26.174137 1
-10.110900 9.173263 33.250290 1
-12.999729 9.173263 26.174137 1
-12.999729 9.173263 33.250290 1
-1.444415 0.833934 28.532856 1
-1.444415 0.833934 35.609009 1
-4.333244 0.833934 28.532856 1
-4.333244 0.833934 35.609009 1
-7.222072 0.833934 28.532856 1
-7.222072 0.833934 35.609009 1
-10.110900 0.833934 28.532856 1
-10.110900 0.833934 35.609009 1
-12.999729 0.833934 28.532856 1
-12.999729 0.833934 35.609009 1
-1.444415 5.837531 28.532856 1
-1.444415 5.837531 35.609009 1
-4.333244 5.837531 28.532856 1
-4.333244 5.837531 35.609009 1
-7.222072 5.837531 28.532856 1
-7.222072 5.837531 35.609009 1
-10.110900 5.837531 28.532856 1
-10.110900 5.837531 35.609009 1
-12.999729 5.837531 28.532856 1
-12.999729 5.837531 35.609009 1
-1.444415 2.501800 30.891573 1
-1.444415 2.501800 23.815420 1
-1.444415 2.501800 37.967731 1
-4.333244 2.501800 30.891573 1
-4.333244 2.501800 23.815420 1
-4.333244 2.501800 37.967731 1
-7.222072 2.501800 30.891573 1
-7.222072 2.501800 23.815420 1
-7.222072 2.501800 37.967731 1
-10.110900 2.501800 30.891573 1
-10.110900 2.501800 23.815420 1
-10.110900 2.501800 37.967731 1
-12.999729 2.501800 30.891573 1
-12.999729 2.501800 23.815420 1
-12.999729 2.501800 37.967731 1
-1.444415 7.505397 30.891573 1
-1.444415 7.505397 23.815420 1
-1.444415 7.505397 37.967731 1
-4.333244 7.505397 30.891573 1
-4.333244 7.505397 23.815420 1
-4.333244 7.505397 37.967731 1
-7.222072 7.505397 30.891573 1
-7.222072 7.505397 23.815420 1
-7.222072 7.505397 37.967731 1
-10.110900 7.505397 30.891573 1
-10.110900 7.505397 23.815420 1
-10.110900 7.505397 37.967731 1
-12.999729 7.505397 30.891573 1
-12.999729 7.505397 23.815420 1
-12.999729 7.505397 37.967731 1
-5.064697 5.000151 20.731464 2
-2.011956 5.142528 16.833151 2
-2.751893 0.987177 17.647952 2
-4.294894 6.567091 18.852333 2
-3.618470 6.766226 17.220413 2
-5.315073 6.296536 17.433696 2
-5.553541 1.558377 19.877626 2
-5.913612 0.923564 18.264998 2
-4.472119 0.362649 19.122853 2
-0.423585 1.845628 17.035909 2
-0.260825 3.500716 16.406549 2
-1.099278 2.258487 15.450857 2
-9.379443 5.000151 20.731464 2
-12.432185 5.142528 16.833151 2
-11.692248 0.987177 17.647952 2
-10.149247 6.567091 18.852333 2
-10.825670 6.766226 17.220413 2
-9.129068 6.296536 17.433696 2
-8.890600 1.558377 19.877626 2
-8.530529 0.923564 18.264998 2
-9.972021 0.362649 19.122853 2
-14.020556 1.845628 17.035909 2
-14.183316 3.500716 16.406549 2
-13.344862 2.258487 15.450857 2
-7.222070 5.595085 21.815420 2
-4.695323 3.696914 18.361686 3
-5.976423 4.058194 19.031483 3
-3.887275 4.709392 17.800646 3
-4.280304 2.346307 18.307111 3
-6.008735 4.740296 20.251849 3
-2.244817 3.013325 17.123147 3
-2.670741 4.347951 17.197187 3
-3.070599 2.031898 17.679273 3
-4.298503 6.157821 17.831598 3
-5.096657 1.243600 18.929802 3
-0.940947 2.635926 16.474671 3
-9.748819 3.696914 18.361686 3
-8.467717 4.058194 19.031483 3
-10.556867 4.709392 17.800646 3
-10.163837 2.346307 18.307111 3
-8.435405 4.740296 20.251849 3
-12.199325 3.013325 17.123147 3
-11.773399 4.347951 17.197187 3
-11.373541 2.031898 17.679273 3
-10.145638 6.157821 17.831598 3
-9.347484 1.243600 18.929802 3
-13.503192 2.635926 16.474671 3
-7.222070 3.725753 18.450065 3
-7.222070 5.073498 20.857782 3
-7.222070 2.501800 16.218130 3
-7.222070 3.062972 17.253257 4
0.000000 0.000000 0.000000 1
-14.444141 0.000000 0.000000 1
0.000000 10.007195 0.000000 1
0.000000 10.007195 14.152311 1
-14.444141 10.007195 0.000000 1
-14.444141 10.007195 14.152311 1
0.000000 0.000000 7.076156 1
-14.444141 0.000000 7.076156 1
0.000000 10.007195 7.076156 1
-14.444141 10.007195 7.076156 1
-2.888828 0.000000 0.000000 1
-2.888828 10.007195 0.000000 1
-2.888828 10.007195 14.152311 1
-2.888828 0.000000 7.076156 1
-2.888828 10.007195 7.076156 1
-5.777657 0.000000 0.000000 1
-5.777657 10.007195 0.000000 1
-5.777657 10.007195 14.152311 1
-5.777657 0.000000 7.076156 1
-5.777657 10.007195 7.076156 1
-8.666485 0.000000 0.000000 1
-8.666485 10.007195 0.000000 1
-8.666485 10.007195 14.152311 1
-8.666485 0.000000 7.076156 1
-8.666485 10.007195 7.076156 1
-11.555313 0.000000 0.000000 1
-11.555313 10.007195 0.000000 1
-11.555313 10.007195 14.152311 1
-11.555313 0.000000 7.076156 1
-11.555313 10.007195 7.076156 1
0.000000 5.003597 0.000000 1
0.000000 5.003597 14.152311 1
-14.444141 5.003597 0.000000 1
-14.444141 5.003597 14.152311 1
0.000000 5.003597 7.076156 1
-14.444141 5.003597 7.076156 1
-2.888828 5.003597 0.000000 1
-2.888828 5.003597 14.152311 1
-2.888828 5.003597 7.076156 1
-5.777657 5.003597 0.000000 1
-5.777657 5.003597 14.152311 1
-5.777657 5.003597 7.076156 1
-8.666485 5.003597 0.000000 1
-8.666485 5.003597 14.152311 1
-8.666485 5.003597 7.076156 1
-11.555313 5.003597 0.000000 1
-11.555313 5.003597 14.152311 1
-11.555313 5.003597 7.076156 1
0.000000 1.667866 2.358719 1
-14.444141 1.667866 2.358719 1
0.000000 1.667866 9.434874 1
-14.444141 1.667866 9.434874 1
-2.888828 1.667866 2.358719 1
-2.888828 1.667866 9.434874 1
-5.777657 1.667866 2.358719 1
-5.777657 1.667866 9.434874 1
-8.666485 1.667866 2.358719 1
-8.666485 1.667866 9.434874 1
-11.555313 1.667866 2.358719 1
-11.555313 1.667866 9.434874 1
0.000000 6.671463 2.358719 1
-14.444141 6.671463 2.358719 1
0.000000 6.671463 9.434874 1
-14.444141 6.671463 9.434874 1
-2.888828 6.671463 2.358719 1
-2.888828 6.671463 9.434874 1
-5.777657 6.671463 2.358719 1
-5.777657 6.671463 9.434874 1
-8.666485 6.671463 2.358719 1
-8.666485 6.671463 9.434874 1
-11.555313 6.671463 2.358719 1
-11.555313 6.671463 9.434874 1
0.000000 3.335732 4.717437 1
-14.444141 3.335732 4.717437 1
0.000000 3.335732 11.793593 1
-14.444141 3.335732 11.793593 1
-2.888828 3.335732 4.717437 1
-2.888828 3.335732 11.793593 1
-5.777657 3.335732 4.717437 1
-5.777657 3.335732 11.793593 1
-8.666485 3.335732 4.717437 1
-8.666485 3.335732 11.793593 1
-11.555313 3.335732 4.717437 1
-11.555313 3.335732 11.793593 1
0.000000 8.339329 4.717437 1
-14.444141 8.339329 4.717437 1
0.000000 8.339329 11.793593 1
-14.444141 8.339329 11.793593 1
-2.888828 8.339329 4.717437 1
-2.888828 8.339329 11.793593 1
-5.777657 8.339329 4.717437 1
-5.777657 8.339329 11.793593 1
-8.666485 8.339329 4.717437 1
-8.666485 8.339329 11.793593 1
-11.555313 8.339329 4.717437 1
-11.555313 8.339329 11.793593 1
-1.444415 4.169666 2.358716 1
-1.444415 4.169666 9.434872 1
-4.333244 4.169666 2.358716 1
-4.333244 4.169666 9.434872 1
-7.222072 4.169666 2.358716 1
-7.222072 4.169666 9.434872 1
-10.110900 4.169666 2.358716 1
-10.110900 4.169666 9.434872 1
-12.999729 4.169666 2.358716 1
-12.999729 4.169666 9.434872 1
-1.444415 9.173263 2.358716 1
-1.444415 9.173263 9.434872 1
-4.333244 9.173263 2.358716 1
-4.333244 9.173263 9.434872 1
-7.222072 9.173263 2.358716 1
-7.222072 9.173263 9.434872 1
-10.110900 9.173263 2.358716 1
-10.110900 9.173263 9.434872 1
-12.999729 9.173263 2.358716 1
-12.999729 9.173263 9.434872 1
-1.444415 0.833934 4.717435 1
-1.444415 0.833934 11.793590 1
-4.333244 0.833934 4.717435 1
-4.333244 0.833934 11.793590 1
-7.222072 0.833934 4.717435 1
-7.222072 0.833934 11.793590 1
-10.110900 0.833934 4.717435 1
-10.110900 0.833934 11.793590 1
-12.999729 0.833934 4.717435 1
-12.999729 0.833934 11.793590 1
-1.444415 5.837531 4.717435 1
-1.444415 5.837531 11.793590 1
-4.333244 5.837531 4.717435 1
-4.333244 5.837531 11.793590 1
-7.222072 5.837531 4.717435 1
-7.222072 5.837531 11.793590 1
-10.110900 5.837531 4.717435 1
-10.110900 5.837531 11.793590 1
-12.999729 5.837531 4.717435 1
-12.999729 5.837531 11.793590 1
-1.444415 2.501800 7.076153 1
-1.444415 2.501800 0.000000 1
-4.333244 2.501800 7.076153 1
-4.333244 2.501800 0.000000 1
-7.222072 2.501800 7.076153 1
-7.222072 2.501800 0.000000 1
-7.222072 2.501800 14.152311 1
-10.110900 2.501800 7.076153 1
-10.110900 2.501800 0.000000 1
-12.999729 2.501800 7.076153 1
-12.999729 2.501800 0.000000 1
-1.444415 7.505397 7.076153 1
-1.444415 7.505397 0.000000 1
-1.444415 7.505397 14.152311 1
-4.333244 7.505397 7.076153 1
-4.333244 7.505397 0.000000 1
-4.333244 7.505397 14.152311 1
-7.222072 7.505397 7.076153 1
-7.222072 7.505397 0.000000 1
-7.222072 7.505397 14.152311 1
-10.110900 7.505397 7.076153 1
-10.110900 7.505397 0.000000 1
-10.110900 7.505397 14.152311 1
-12.999729 7.505397 7.076153 1
-12.999729 7.505397 0.000000 1
-12.999729 7.505397 14.152311 1
%endblock AtomicCoordinatesAndAtomicSpecies
