385
generated by VMD
Ag 0.000000 0.000000 23.815420
Ag 0.000000 0.000000 37.967731
Ag -14.444141 0.000000 23.815420
Ag -14.444141 0.000000 37.967731
Ag 0.000000 10.007195 23.815420
Ag 0.000000 10.007195 37.967731
Ag -14.444141 10.007195 23.815420
Ag -14.444141 10.007195 37.967731
Ag 0.000000 0.000000 30.891577
Ag -14.444141 0.000000 30.891577
Ag 0.000000 10.007195 30.891577
Ag -14.444141 10.007195 30.891577
Ag -2.888828 0.000000 23.815420
Ag -2.888828 0.000000 37.967731
Ag -2.888828 10.007195 23.815420
Ag -2.888828 10.007195 37.967731
Ag -2.888828 0.000000 30.891577
Ag -2.888828 10.007195 30.891577
Ag -5.777657 0.000000 23.815420
Ag -5.777657 0.000000 37.967731
Ag -5.777657 10.007195 23.815420
Ag -5.777657 10.007195 37.967731
Ag -5.777657 0.000000 30.891577
Ag -5.777657 10.007195 30.891577
Ag -8.666485 0.000000 23.815420
Ag -8.666485 0.000000 37.967731
Ag -8.666485 10.007195 23.815420
Ag -8.666485 10.007195 37.967731
Ag -8.666485 0.000000 30.891577
Ag -8.666485 10.007195 30.891577
Ag -11.555313 0.000000 23.815420
Ag -11.555313 0.000000 37.967731
Ag -11.555313 10.007195 23.815420
Ag -11.555313 10.007195 37.967731
Ag -11.555313 0.000000 30.891577
Ag -11.555313 10.007195 30.891577
Ag 0.000000 5.003597 23.815420
Ag 0.000000 5.003597 37.967731
Ag -14.444141 5.003597 23.815420
Ag -14.444141 5.003597 37.967731
Ag 0.000000 5.003597 30.891577
Ag -14.444141 5.003597 30.891577
Ag -2.888828 5.003597 23.815420
Ag -2.888828 5.003597 37.967731
Ag -2.888828 5.003597 30.891577
Ag -5.777657 5.003597 23.815420
Ag -5.777657 5.003597 37.967731
Ag -5.777657 5.003597 30.891577
Ag -8.666485 5.003597 23.815420
Ag -8.666485 5.003597 37.967731
Ag -8.666485 5.003597 30.891577
Ag -11.555313 5.003597 23.815420
Ag -11.555313 5.003597 37.967731
Ag -11.555313 5.003597 30.891577
Ag 0.000000 1.667866 26.174139
Ag -14.444141 1.667866 26.174139
Ag 0.000000 1.667866 33.250294
Ag -14.444141 1.667866 33.250294
Ag -2.888828 1.667866 26.174139
Ag -2.888828 1.667866 33.250294
Ag -5.777657 1.667866 26.174139
Ag -5.777657 1.667866 33.250294
Ag -8.666485 1.667866 26.174139
Ag -8.666485 1.667866 33.250294
Ag -11.555313 1.667866 26.174139
Ag -11.555313 1.667866 33.250294
Ag 0.000000 6.671463 26.174139
Ag -14.444141 6.671463 26.174139
Ag 0.000000 6.671463 33.250294
Ag -14.444141 6.671463 33.250294
Ag -2.888828 6.671463 26.174139
Ag -2.888828 6.671463 33.250294
Ag -5.777657 6.671463 26.174139
Ag -5.777657 6.671463 33.250294
Ag -8.666485 6.671463 26.174139
Ag -8.666485 6.671463 33.250294
Ag -11.555313 6.671463 26.174139
Ag -11.555313 6.671463 33.250294
Ag 0.000000 3.335732 28.532856
Ag -14.444141 3.335732 28.532856
Ag 0.000000 3.335732 35.609013
Ag -14.444141 3.335732 35.609013
Ag -2.888828 3.335732 28.532856
Ag -2.888828 3.335732 35.609013
Ag -5.777657 3.335732 28.532856
Ag -5.777657 3.335732 35.609013
Ag -8.666485 3.335732 28.532856
Ag -8.666485 3.335732 35.609013
Ag -11.555313 3.335732 28.532856
Ag -11.555313 3.335732 35.609013
Ag 0.000000 8.339329 28.532856
Ag -14.444141 8.339329 28.532856
Ag 0.000000 8.339329 35.609013
Ag -14.444141 8.339329 35.609013
Ag -2.888828 8.339329 28.532856
Ag -2.888828 8.339329 35.609013
Ag -5.777657 8.339329 28.532856
Ag -5.777657 8.339329 35.609013
Ag -8.666485 8.339329 28.532856
Ag -8.666485 8.339329 35.609013
Ag -11.555313 8.339329 28.532856
Ag -11.555313 8.339329 35.609013
Ag -1.444415 4.169666 26.174137
Ag -1.444415 4.169666 33.250290
Ag -4.333244 4.169666 26.174137
Ag -4.333244 4.169666 33.250290
Ag -7.222072 4.169666 26.174137
Ag -7.222072 4.169666 33.250290
Ag -10.110900 4.169666 26.174137
Ag -10.110900 4.169666 33.250290
Ag -12.999729 4.169666 26.174137
Ag -12.999729 4.169666 33.250290
Ag -1.444415 9.173263 26.174137
Ag -1.444415 9.173263 33.250290
Ag -4.333244 9.173263 26.174137
Ag -4.333244 9.173263 33.250290
Ag -7.222072 9.173263 26.174137
Ag -7.222072 9.173263 33.250290
Ag -10.110900 9.173263 26.174137
Ag -10.110900 9.173263 33.250290
Ag -12.999729 9.173263 26.174137
Ag -12.999729 9.173263 33.250290
Ag -1.444415 0.833934 28.532856
Ag -1.444415 0.833934 35.609009
Ag -4.333244 0.833934 28.532856
Ag -4.333244 0.833934 35.609009
Ag -7.222072 0.833934 28.532856
Ag -7.222072 0.833934 35.609009
Ag -10.110900 0.833934 28.532856
Ag -10.110900 0.833934 35.609009
Ag -12.999729 0.833934 28.532856
Ag -12.999729 0.833934 35.609009
Ag -1.444415 5.837531 28.532856
Ag -1.444415 5.837531 35.609009
Ag -4.333244 5.837531 28.532856
Ag -4.333244 5.837531 35.609009
Ag -7.222072 5.837531 28.532856
Ag -7.222072 5.837531 35.609009
Ag -10.110900 5.837531 28.532856
Ag -10.110900 5.837531 35.609009
Ag -12.999729 5.837531 28.532856
Ag -12.999729 5.837531 35.609009
Ag -1.444415 2.501800 30.891573
Ag -1.444415 2.501800 23.815420
Ag -1.444415 2.501800 37.967731
Ag -4.333244 2.501800 30.891573
Ag -4.333244 2.501800 23.815420
Ag -4.333244 2.501800 37.967731
Ag -7.222072 2.501800 30.891573
Ag -7.222072 2.501800 23.815420
Ag -7.222072 2.501800 37.967731
Ag -10.110900 2.501800 30.891573
Ag -10.110900 2.501800 23.815420
Ag -10.110900 2.501800 37.967731
Ag -12.999729 2.501800 30.891573
Ag -12.999729 2.501800 23.815420
Ag -12.999729 2.501800 37.967731
Ag -1.444415 7.505397 30.891573
Ag -1.444415 7.505397 23.815420
Ag -1.444415 7.505397 37.967731
Ag -4.333244 7.505397 30.891573
Ag -4.333244 7.505397 23.815420
Ag -4.333244 7.505397 37.967731
Ag -7.222072 7.505397 30.891573
Ag -7.222072 7.505397 23.815420
Ag -7.222072 7.505397 37.967731
Ag -10.110900 7.505397 30.891573
Ag -10.110900 7.505397 23.815420
Ag -10.110900 7.505397 37.967731
Ag -12.999729 7.505397 30.891573
Ag -12.999729 7.505397 23.815420
Ag -12.999729 7.505397 37.967731
H -5.064697 5.000151 20.731464
H -2.011956 5.142528 16.833151
H -2.751893 0.987177 17.647952
H -4.294894 6.567091 18.852333
H -3.618470 6.766226 17.220413
H -5.315073 6.296536 17.433696
H -5.553541 1.558377 19.877626
H -5.913612 0.923564 18.264998
H -4.472119 0.362649 19.122853
H -0.423585 1.845628 17.035909
H -0.260825 3.500716 16.406549
H -1.099278 2.258487 15.450857
H -9.379443 5.000151 20.731464
H -12.432185 5.142528 16.833151
H -11.692248 0.987177 17.647952
H -10.149247 6.567091 18.852333
H -10.825670 6.766226 17.220413
H -9.129068 6.296536 17.433696
H -8.890600 1.558377 19.877626
H -8.530529 0.923564 18.264998
H -9.972021 0.362649 19.122853
H -14.020556 1.845628 17.035909
H -14.183316 3.500716 16.406549
H -13.344862 2.258487 15.450857
H -7.222070 5.595085 21.815420
C -4.695323 3.696914 18.361686
C -5.976423 4.058194 19.031483
C -3.887275 4.709392 17.800646
C -4.280304 2.346307 18.307111
C -6.008735 4.740296 20.251849
C -2.244817 3.013325 17.123147
C -2.670741 4.347951 17.197187
C -3.070599 2.031898 17.679273
C -4.298503 6.157821 17.831598
C -5.096657 1.243600 18.929802
C -0.940947 2.635926 16.474671
C -9.748819 3.696914 18.361686
C -8.467717 4.058194 19.031483
C -10.556867 4.709392 17.800646
C -10.163837 2.346307 18.307111
C -8.435405 4.740296 20.251849
C -12.199325 3.013325 17.123147
C -11.773399 4.347951 17.197187
C -11.373541 2.031898 17.679273
C -10.145638 6.157821 17.831598
C -9.347484 1.243600 18.929802
C -13.503192 2.635926 16.474671
C -7.222070 3.725753 18.450065
C -7.222070 5.073498 20.857782
C -7.222070 2.501800 16.218130
N -7.222070 3.062972 17.253257
Ag 0.000000 0.000000 0.000000
Ag -14.444141 0.000000 0.000000
Ag 0.000000 10.007195 0.000000
Ag 0.000000 10.007195 14.152311
Ag -14.444141 10.007195 0.000000
Ag -14.444141 10.007195 14.152311
Ag 0.000000 0.000000 7.076156
Ag -14.444141 0.000000 7.076156
Ag 0.000000 10.007195 7.076156
Ag -14.444141 10.007195 7.076156
Ag -2.888828 0.000000 0.000000
Ag -2.888828 10.007195 0.000000
Ag -2.888828 10.007195 14.152311
Ag -2.888828 0.000000 7.076156
Ag -2.888828 10.007195 7.076156
Ag -5.777657 0.000000 0.000000
Ag -5.777657 10.007195 0.000000
Ag -5.777657 10.007195 14.152311
Ag -5.777657 0.000000 7.076156
Ag -5.777657 10.007195 7.076156
Ag -8.666485 0.000000 0.000000
Ag -8.666485 10.007195 0.000000
Ag -8.666485 10.007195 14.152311
Ag -8.666485 0.000000 7.076156
Ag -8.666485 10.007195 7.076156
Ag -11.555313 0.000000 0.000000
Ag -11.555313 10.007195 0.000000
Ag -11.555313 10.007195 14.152311
Ag -11.555313 0.000000 7.076156
Ag -11.555313 10.007195 7.076156
Ag 0.000000 5.003597 0.000000
Ag 0.000000 5.003597 14.152311
Ag -14.444141 5.003597 0.000000
Ag -14.444141 5.003597 14.152311
Ag 0.000000 5.003597 7.076156
Ag -14.444141 5.003597 7.076156
Ag -2.888828 5.003597 0.000000
Ag -2.888828 5.003597 14.152311
Ag -2.888828 5.003597 7.076156
Ag -5.777657 5.003597 0.000000
Ag -5.777657 5.003597 14.152311
Ag -5.777657 5.003597 7.076156
Ag -8.666485 5.003597 0.000000
Ag -8.666485 5.003597 14.152311
Ag -8.666485 5.003597 7.076156
Ag -11.555313 5.003597 0.000000
Ag -11.555313 5.003597 14.152311
Ag -11.555313 5.003597 7.076156
Ag 0.000000 1.667866 2.358719
Ag -14.444141 1.667866 2.358719
Ag 0.000000 1.667866 9.434874
Ag -14.444141 1.667866 9.434874
Ag -2.888828 1.667866 2.358719
Ag -2.888828 1.667866 9.434874
Ag -5.777657 1.667866 2.358719
Ag -5.777657 1.667866 9.434874
Ag -8.666485 1.667866 2.358719
Ag -8.666485 1.667866 9.434874
Ag -11.555313 1.667866 2.358719
Ag -11.555313 1.667866 9.434874
Ag 0.000000 6.671463 2.358719
Ag -14.444141 6.671463 2.358719
Ag 0.000000 6.671463 9.434874
Ag -14.444141 6.671463 9.434874
Ag -2.888828 6.671463 2.358719
Ag -2.888828 6.671463 9.434874
Ag -5.777657 6.671463 2.358719
Ag -5.777657 6.671463 9.434874
Ag -8.666485 6.671463 2.358719
Ag -8.666485 6.671463 9.434874
Ag -11.555313 6.671463 2.358719
Ag -11.555313 6.671463 9.434874
Ag 0.000000 3.335732 4.717437
Ag -14.444141 3.335732 4.717437
Ag 0.000000 3.335732 11.793593
Ag -14.444141 3.335732 11.793593
Ag -2.888828 3.335732 4.717437
Ag -2.888828 3.335732 11.793593
Ag -5.777657 3.335732 4.717437
Ag -5.777657 3.335732 11.793593
Ag -8.666485 3.335732 4.717437
Ag -8.666485 3.335732 11.793593
Ag -11.555313 3.335732 4.717437
Ag -11.555313 3.335732 11.793593
Ag 0.000000 8.339329 4.717437
Ag -14.444141 8.339329 4.717437
Ag 0.000000 8.339329 11.793593
Ag -14.444141 8.339329 11.793593
Ag -2.888828 8.339329 4.717437
Ag -2.888828 8.339329 11.793593
Ag -5.777657 8.339329 4.717437
Ag -5.777657 8.339329 11.793593
Ag -8.666485 8.339329 4.717437
Ag -8.666485 8.339329 11.793593
Ag -11.555313 8.339329 4.717437
Ag -11.555313 8.339329 11.793593
Ag -1.444415 4.169666 2.358716
Ag -1.444415 4.169666 9.434872
Ag -4.333244 4.169666 2.358716
Ag -4.333244 4.169666 9.434872
Ag -7.222072 4.169666 2.358716
Ag -7.222072 4.169666 9.434872
Ag -10.110900 4.169666 2.358716
Ag -10.110900 4.169666 9.434872
Ag -12.999729 4.169666 2.358716
Ag -12.999729 4.169666 9.434872
Ag -1.444415 9.173263 2.358716
Ag -1.444415 9.173263 9.434872
Ag -4.333244 9.173263 2.358716
Ag -4.333244 9.173263 9.434872
Ag -7.222072 9.173263 2.358716
Ag -7.222072 9.173263 9.434872
Ag -10.110900 9.173263 2.358716
Ag -10.110900 9.173263 9.434872
Ag -12.999729 9.173263 2.358716
Ag -12.999729 9.173263 9.434872
Ag -1.444415 0.833934 4.717435
Ag -1.444415 0.833934 11.793590
Ag -4.333244 0.833934 4.717435
Ag -4.333244 0.833934 11.793590
Ag -7.222072 0.833934 4.717435
Ag -7.222072 0.833934 11.793590
Ag -10.110900 0.833934 4.717435
Ag -10.110900 0.833934 11.793590
Ag -12.999729 0.833934 4.717435
Ag -12.999729 0.833934 11.793590
Ag -1.444415 5.837531 4.717435
Ag -1.444415 5.837531 11.793590
Ag -4.333244 5.837531 4.717435
Ag -4.333244 5.837531 11.793590
Ag -7.222072 5.837531 4.717435
Ag -7.222072 5.837531 11.793590
Ag -10.110900 5.837531 4.717435
Ag -10.110900 5.837531 11.793590
Ag -12.999729 5.837531 4.717435
Ag -12.999729 5.837531 11.793590
Ag -1.444415 2.501800 7.076153
Ag -1.444415 2.501800 0.000000
Ag -4.333244 2.501800 7.076153
Ag -4.333244 2.501800 0.000000
Ag -7.222072 2.501800 7.076153
Ag -7.222072 2.501800 0.000000
Ag -7.222072 2.501800 14.152311
Ag -10.110900 2.501800 7.076153
Ag -10.110900 2.501800 0.000000
Ag -12.999729 2.501800 7.076153
Ag -12.999729 2.501800 0.000000
Ag -1.444415 7.505397 7.076153
Ag -1.444415 7.505397 0.000000
Ag -1.444415 7.505397 14.152311
Ag -4.333244 7.505397 7.076153
Ag -4.333244 7.505397 0.000000
Ag -4.333244 7.505397 14.152311
Ag -7.222072 7.505397 7.076153
Ag -7.222072 7.505397 0.000000
Ag -7.222072 7.505397 14.152311
Ag -10.110900 7.505397 7.076153
Ag -10.110900 7.505397 0.000000
Ag -10.110900 7.505397 14.152311
Ag -12.999729 7.505397 7.076153
Ag -12.999729 7.505397 0.000000
Ag -12.999729 7.505397 14.152311
