60
generated by VMD
Ag 0.000000 0.000000 23.815420
Ag 11.555313 0.000000 23.815420
Ag 8.666485 0.000000 23.815420
Ag 5.777657 0.000000 23.815420
Ag 2.888828 0.000000 23.815420
Ag 0.000000 5.003597 23.815420
Ag 11.555313 5.003597 23.815420
Ag 8.666485 5.003597 23.815420
Ag 5.777657 5.003597 23.815420
Ag 2.888828 5.003597 23.815420
Ag 12.999726 -2.501798 23.815418
Ag 10.110897 -2.501798 23.815418
Ag 7.222069 -2.501798 23.815418
Ag 4.333241 -2.501798 23.815418
Ag 1.444412 -2.501798 23.815418
Ag 12.999726 2.501799 23.815418
Ag 10.110897 2.501799 23.815418
Ag 7.222069 2.501799 23.815418
Ag 4.333241 2.501799 23.815418
Ag 1.444412 2.501799 23.815418
Ag 0.000000 -1.667866 21.456702
Ag 11.555313 -1.667866 21.456702
Ag 8.666485 -1.667866 21.456702
Ag 5.777657 -1.667866 21.456702
Ag 2.888828 -1.667866 21.456702
Ag 0.000000 3.335731 21.456702
Ag 11.555313 3.335731 21.456702
Ag 8.666485 3.335731 21.456702
Ag 5.777657 3.335731 21.456702
Ag 2.888828 3.335731 21.456702
Ag 12.999726 0.833934 21.456699
Ag 10.110897 0.833934 21.456699
Ag 7.222069 0.833934 21.456699
Ag 4.333241 0.833934 21.456699
Ag 1.444412 0.833934 21.456699
Ag 12.999726 5.837531 21.456699
Ag 10.110897 5.837531 21.456699
Ag 7.222069 5.837531 21.456699
Ag 4.333241 5.837531 21.456699
Ag 1.444412 5.837531 21.456699
Ag 0.000000 -3.335732 19.097983
Ag 0.000000 1.667865 19.097983
Ag 11.555313 -3.335732 19.097983
Ag 11.555313 1.667865 19.097983
Ag 8.666485 -3.335732 19.097983
Ag 8.666485 1.667865 19.097983
Ag 5.777657 -3.335732 19.097983
Ag 5.777657 1.667865 19.097983
Ag 2.888828 -3.335732 19.097983
Ag 2.888828 1.667865 19.097983
Ag 12.999726 -0.833932 19.097983
Ag 10.110897 -0.833932 19.097983
Ag 7.222069 -0.833932 19.097983
Ag 4.333241 -0.833932 19.097983
Ag 1.444412 -0.833932 19.097983
Ag 12.999726 4.169665 19.097983
Ag 10.110897 4.169665 19.097983
Ag 7.222069 4.169665 19.097983
Ag 4.333241 4.169665 19.097983
Ag 1.444412 4.169665 19.097983
