# Atomic coordinates
NumberOfAtoms 60
AtomicCoordinatesFormat Ang
%block AtomicCoordinatesAndAtomicSpecies
0.0000000000 0.0000000000 23.8154200000 1
11.5553130000 0.0000000000 23.8154200000 1
8.6664850000 0.0000000000 23.8154200000 1
5.7776570000 0.0000000000 23.8154200000 1
2.8888280000 0.0000000000 23.8154200000 1
0.0000000000 5.0035970000 23.8154200000 1
11.5553130000 5.0035970000 23.8154200000 1
8.6664850000 5.0035970000 23.8154200000 1
5.7776570000 5.0035970000 23.8154200000 1
2.8888280000 5.0035970000 23.8154200000 1
12.9997260000 -2.5017980000 23.8154180000 1
10.1108970000 -2.5017980000 23.8154180000 1
7.2220690000 -2.5017980000 23.8154180000 1
4.3332410000 -2.5017980000 23.8154180000 1
1.4444120000 -2.5017980000 23.8154180000 1
12.9997260000 2.5017990000 23.8154180000 1
10.1108970000 2.5017990000 23.8154180000 1
7.2220690000 2.5017990000 23.8154180000 1
4.3332410000 2.5017990000 23.8154180000 1
1.4444120000 2.5017990000 23.8154180000 1
0.0000000000 -1.6678660000 21.4567020000 1
11.5553130000 -1.6678660000 21.4567020000 1
8.6664850000 -1.6678660000 21.4567020000 1
5.7776570000 -1.6678660000 21.4567020000 1
2.8888280000 -1.6678660000 21.4567020000 1
0.0000000000 3.3357310000 21.4567020000 1
11.5553130000 3.3357310000 21.4567020000 1
8.6664850000 3.3357310000 21.4567020000 1
5.7776570000 3.3357310000 21.4567020000 1
2.8888280000 3.3357310000 21.4567020000 1
12.9997260000 0.8339340000 21.4566990000 1
10.1108970000 0.8339340000 21.4566990000 1
7.2220690000 0.8339340000 21.4566990000 1
4.3332410000 0.8339340000 21.4566990000 1
1.4444120000 0.8339340000 21.4566990000 1
12.9997260000 5.8375310000 21.4566990000 1
10.1108970000 5.8375310000 21.4566990000 1
7.2220690000 5.8375310000 21.4566990000 1
4.3332410000 5.8375310000 21.4566990000 1
1.4444120000 5.8375310000 21.4566990000 1
0.0000000000 -3.3357320000 19.0979830000 1
0.0000000000 1.6678650000 19.0979830000 1
11.5553130000 -3.3357320000 19.0979830000 1
11.5553130000 1.6678650000 19.0979830000 1
8.6664850000 -3.3357320000 19.0979830000 1
8.6664850000 1.6678650000 19.0979830000 1
5.7776570000 -3.3357320000 19.0979830000 1
5.7776570000 1.6678650000 19.0979830000 1
2.8888280000 -3.3357320000 19.0979830000 1
2.8888280000 1.6678650000 19.0979830000 1
12.9997260000 -0.8339320000 19.0979830000 1
10.1108970000 -0.8339320000 19.0979830000 1
7.2220690000 -0.8339320000 19.0979830000 1
4.3332410000 -0.8339320000 19.0979830000 1
1.4444120000 -0.8339320000 19.0979830000 1
12.9997260000 4.1696650000 19.0979830000 1
10.1108970000 4.1696650000 19.0979830000 1
7.2220690000 4.1696650000 19.0979830000 1
4.3332410000 4.1696650000 19.0979830000 1
1.4444120000 4.1696650000 19.0979830000 1
%endblock AtomicCoordinatesAndAtomicSpecies