60
 generated by VMD
 Ag        0.000000        0.000000       33.250298
 Ag       11.555313        0.000000       33.250298
 Ag        8.666485        0.000000       33.250298
 Ag        5.777657        0.000000       33.250298
 Ag        2.888828        0.000000       33.250298
 Ag        0.000000        5.003597       33.250298
 Ag       11.555313        5.003597       33.250298
 Ag        8.666485        5.003597       33.250298
 Ag        5.777657        5.003597       33.250298
 Ag        2.888828        5.003597       33.250298
 Ag       12.999726        2.501800       33.250294
 Ag       10.110897        2.501800       33.250294
 Ag        7.222069        2.501800       33.250294
 Ag        4.333241        2.501800       33.250294
 Ag        1.444412        2.501800       33.250294
 Ag       12.999726        7.505397       33.250294
 Ag       10.110897        7.505397       33.250294
 Ag        7.222069        7.505397       33.250294
 Ag        4.333241        7.505397       33.250294
 Ag        1.444412        7.505397       33.250294
 Ag       12.999726        4.169666       35.609009
 Ag       10.110897        4.169666       35.609009
 Ag        7.222069        4.169666       35.609009
 Ag        4.333241        4.169666       35.609009
 Ag        1.444412        4.169666       35.609009
 Ag       12.999726        9.173263       35.609009
 Ag       10.110897        9.173263       35.609009
 Ag        7.222069        9.173263       35.609009
 Ag        4.333241        9.173263       35.609009
 Ag        1.444412        9.173263       35.609009
 Ag        0.000000        1.667866       35.609013
 Ag       11.555313        1.667866       35.609013
 Ag        8.666485        1.667866       35.609013
 Ag        5.777657        1.667866       35.609013
 Ag        2.888828        1.667866       35.609013
 Ag        0.000000        6.671463       35.609013
 Ag       11.555313        6.671463       35.609013
 Ag        8.666485        6.671463       35.609013
 Ag        5.777657        6.671463       35.609013
 Ag        2.888828        6.671463       35.609013
 Ag        0.000000        3.335732       37.967731
 Ag       11.555313        3.335732       37.967731
 Ag        8.666485        3.335732       37.967731
 Ag        5.777657        3.335732       37.967731
 Ag        2.888828        3.335732       37.967731
 Ag        0.000000        8.339329       37.967731
 Ag       11.555313        8.339329       37.967731
 Ag        8.666485        8.339329       37.967731
 Ag        5.777657        8.339329       37.967731
 Ag        2.888828        8.339329       37.967731
 Ag       12.999726        0.833934       37.967728
 Ag       10.110897        0.833934       37.967728
 Ag        7.222069        0.833934       37.967728
 Ag        4.333241        0.833934       37.967728
 Ag        1.444412        0.833934       37.967728
 Ag       12.999726        5.837531       37.967728
 Ag       10.110897        5.837531       37.967728
 Ag        7.222069        5.837531       37.967728
 Ag        4.333241        5.837531       37.967728
 Ag        1.444412        5.837531       37.967728