53
generated by VMD
O -0.5787 -1.9919 0.4990
O -0.3951 2.6957 -0.8292
C -2.7626 -0.9279 0.1684
C -2.1208 0.3156 -0.4942
C -1.8900 -2.1827 -0.0737
C -4.2255 -1.0355 -0.2831
C -0.6628 0.3922 -0.0810
C -5.0238 0.1842 0.1928
C -2.9653 1.5429 -0.2199
C -4.2731 1.4881 0.0931
C 0.0013 -0.7572 0.3763
C -2.4784 -3.4921 0.4747
C -1.6307 -2.3886 -1.5769
C 0.0890 1.5706 -0.2281
C 1.3498 -0.7035 0.7501
C -5.0789 2.7258 0.3636
C 2.0651 0.4844 0.6346
C 1.4370 1.6193 0.1358
C 3.5035 0.5330 1.0232
C 4.4822 0.1832 -0.1131
C 5.9447 0.1800 0.3428
C 6.8816 -0.1965 -0.8055
C 8.3316 -0.2391 -0.3500
H -2.7678 -0.7687 1.2599
H -2.1239 0.2077 -1.5874
H -4.7027 -1.9361 0.1170
H -4.2831 -1.1023 -1.3765
H -5.3102 0.0339 1.2415
H -5.9523 0.2416 -0.3877
H -2.5384 2.5337 -0.2992
H -2.7071 -3.3855 1.5409
H -3.3910 -3.7904 -0.0496
H -1.7529 -4.3100 0.3960
H -1.0447 -3.3038 -1.7339
H -2.5631 -2.5009 -2.1391
H -1.0362 -1.5994 -2.0459
H 1.8418 -1.6018 1.1174
H -5.5017 2.6890 1.3728
H -5.9006 2.8083 -0.3551
H -4.4775 3.6379 0.2882
H 2.0084 2.5365 0.0105
H 3.7439 1.5317 1.4116
H 3.6714 -0.1492 1.8673
H 4.3559 0.8995 -0.9348
H 4.2275 -0.8046 -0.5182
H 0.2871 3.3882 -0.8427
H 6.2111 1.1713 0.7286
H 6.0679 -0.5326 1.1673
H 6.7804 0.5287 -1.6213
H 6.6037 -1.1779 -1.2071
H 8.4722 -0.9806 0.4429
H 8.9839 -0.5086 -1.1865
H 8.6519 0.7361 0.0304