20
 generated by VMD
 Ag        0.000000        3.335732       23.815418
 Ag       11.555313        3.335732       23.815418
 Ag        8.666485        3.335732       23.815418
 Ag        5.777657        3.335732       23.815418
 Ag        2.888828        3.335732       23.815418
 Ag        0.000000        8.339329       23.815418
 Ag       11.555313        8.339329       23.815418
 Ag        8.666485        8.339329       23.815418
 Ag        5.777657        8.339329       23.815418
 Ag        2.888828        8.339329       23.815418
 Ag       12.999726        0.833934       23.815418
 Ag       10.110897        0.833934       23.815418
 Ag        7.222069        0.833934       23.815418
 Ag        4.333241        0.833934       23.815418
 Ag        1.444412        0.833934       23.815418
 Ag       12.999726        5.837531       23.815418
 Ag       10.110897        5.837531       23.815418
 Ag        7.222069        5.837531       23.815418
 Ag        4.333241        5.837531       23.815418
 Ag        1.444412        5.837531       23.815418
