# Atomic coordinates
NumberOfAtoms 132
AtomicCoordinatesFormat Ang
%block AtomicCoordinatesAndAtomicSpecies
0.000000 0.000000 0.000000 1
0.000000 2.883758 0.000000 1
0.000000 5.767517 0.000000 1
12.487040 1.441879 0.000000 1
12.487040 4.325637 0.000000 1
12.487040 7.209396 0.000000 1
14.984447 0.000000 0.000000 1
14.984447 2.883758 0.000000 1
14.984447 5.767517 0.000000 1
17.481855 1.441879 0.000000 1
17.481855 4.325637 0.000000 1
17.481855 7.209396 0.000000 1
2.497408 1.441879 0.000000 1
2.497408 4.325637 0.000000 1
2.497408 7.209396 0.000000 1
4.994816 0.000000 0.000000 1
4.994816 2.883758 0.000000 1
4.994816 5.767517 0.000000 1
7.492224 1.441879 0.000000 1
7.492224 4.325637 0.000000 1
7.492224 7.209396 0.000000 1
9.989632 0.000000 0.000000 1
9.989632 2.883758 0.000000 1
9.989632 5.767517 0.000000 1
11.654570 0.000000 2.354579 1
11.654570 2.883758 2.354579 1
11.654570 5.767517 2.354579 1
14.151978 1.441879 2.354579 1
14.151978 4.325637 2.354579 1
14.151978 7.209396 2.354579 1
16.649385 0.000000 2.354579 1
16.649385 2.883758 2.354579 1
16.649385 5.767517 2.354579 1
1.664939 0.000000 2.354579 1
1.664939 2.883758 2.354579 1
1.664939 5.767517 2.354579 1
19.146793 1.441879 2.354579 1
19.146793 4.325637 2.354579 1
19.146793 7.209396 2.354579 1
4.162346 1.441879 2.354579 1
4.162346 4.325637 2.354579 1
4.162346 7.209396 2.354579 1
6.659755 0.000000 2.354579 1
6.659755 2.883758 2.354579 1
6.659755 5.767517 2.354579 1
9.157162 1.441879 2.354579 1
9.157162 4.325637 2.354579 1
9.157162 7.209396 2.354579 1
0.832469 1.441879 4.709157 1
0.832469 4.325637 4.709157 1
0.832469 7.209396 4.709157 1
10.822102 1.441879 4.709157 1
10.822102 4.325637 4.709157 1
10.822102 7.209396 4.709157 1
13.319510 0.000000 4.709157 1
13.319510 2.883758 4.709157 1
13.319510 5.767517 4.709157 1
15.816917 1.441879 4.709157 1
15.816917 4.325637 4.709157 1
15.816917 7.209396 4.709157 1
18.314325 0.000000 4.709157 1
18.314325 2.883758 4.709157 1
18.314325 5.767517 4.709157 1
3.329877 0.000000 4.709157 1
3.329877 2.883758 4.709157 1
3.329877 5.767517 4.709157 1
5.827285 1.441879 4.709157 1
5.827285 4.325637 4.709157 1
5.827285 7.209396 4.709157 1
8.324694 0.000000 4.709157 1
8.324694 2.883758 4.709157 1
8.324694 5.767517 4.709157 1
0.000000 0.000000 7.063736 1
0.000000 2.883758 7.063736 1
0.000000 5.767517 7.063736 1
12.487040 1.441879 7.063736 1
12.487040 4.325637 7.063736 1
12.487040 7.209396 7.063736 1
14.984447 0.000000 7.063736 1
14.984447 2.883758 7.063736 1
14.984447 5.767517 7.063736 1
17.481855 1.441879 7.063736 1
17.481855 4.325637 7.063736 1
17.481855 7.209396 7.063736 1
2.497408 1.441879 7.063736 1
2.497408 4.325637 7.063736 1
2.497408 7.209396 7.063736 1
4.994816 0.000000 7.063736 1
4.994816 2.883758 7.063736 1
4.994816 5.767517 7.063736 1
7.492224 1.441879 7.063736 1
7.492224 4.325637 7.063736 1
7.492224 7.209396 7.063736 1
9.989632 0.000000 7.063736 1
9.989632 2.883758 7.063736 1
9.989632 5.767517 7.063736 1
11.654570 0.000000 9.418315 1
11.654570 2.883758 9.418315 1
11.654570 5.767517 9.418315 1
14.151978 1.441879 9.418315 1
14.151978 4.325637 9.418315 1
14.151978 7.209396 9.418315 1
16.649385 0.000000 9.418315 1
16.649385 2.883758 9.418315 1
16.649385 5.767517 9.418315 1
1.664939 0.000000 9.418315 1
1.664939 2.883758 9.418315 1
1.664939 5.767517 9.418315 1
19.146793 1.441879 9.418315 1
19.146793 4.325637 9.418315 1
19.146793 7.209396 9.418315 1
4.162346 1.441879 9.418315 1
4.162346 4.325637 9.418315 1
4.162346 7.209396 9.418315 1
6.659755 0.000000 9.418315 1
6.659755 2.883758 9.418315 1
6.659755 5.767517 9.418315 1
9.157162 1.441879 9.418315 1
9.157162 4.325637 9.418315 1
9.157162 7.209396 9.418315 1
0.832469 1.441879 11.772894 1
0.832469 4.325637 11.772894 1
0.832469 7.209396 11.772894 1
3.329877 0.000000 11.772894 1
3.329877 2.883758 11.772894 1
3.329877 5.767517 11.772894 1
5.827285 1.441879 11.772894 1
5.827285 4.325637 11.772894 1
5.827285 7.209396 11.772894 1
8.324694 0.000000 11.772894 1
8.324694 2.883758 11.772894 1
8.324694 5.767517 11.772894 1
%endblock AtomicCoordinatesAndAtomicSpecies
