# Atomic coordinates
NumberOfAtoms 51
AtomicCoordinatesFormat Ang
%block AtomicCoordinatesAndAtomicSpecies
14.477000 3.412300 14.127473 2
2.234310 3.403530 14.127473 2
8.355210 3.398390 14.865872 3
14.663600 3.402080 15.212173 3
2.047570 3.402040 15.212173 3
15.260900 2.507980 15.441273 2
1.446430 2.512240 15.447673 2
1.446500 4.291200 15.450273 2
15.268600 4.286860 15.456673 2
13.361700 3.400850 16.002073 3
3.349470 3.401030 16.002172 3
13.193100 1.238170 16.065073 2
3.513810 1.238220 16.072474 2
8.355600 3.400300 16.076874 4
3.501480 5.563660 16.099073 2
13.214000 5.563460 16.106274 2
12.723400 2.186960 16.343674 3
3.985370 2.187020 16.347874 3
3.978390 4.614260 16.362873 3
12.735300 4.614110 16.367172 3
9.845200 0.753180 16.881273 2
6.864270 0.752640 16.898373 2
6.852250 6.055000 16.936672 2
9.860700 6.055200 16.954372 2
11.498300 2.164530 17.046072 3
11.449200 0.000000 17.048872 2
5.210520 2.164570 17.050173 3
5.258800 0.000050 17.053772 2
5.203490 4.635050 17.065472 3
11.510100 4.634930 17.069473 3
5.242720 6.799600 17.089073 2
11.471600 6.799500 17.093773 2
10.822300 0.839380 17.381073 3
5.883370 0.839230 17.390673 3
10.895900 3.399290 17.411573 3
5.815350 3.399380 17.411573 3
5.868740 5.960000 17.422073 3
10.848000 5.960000 17.431772 3
8.355600 3.399020 17.487972 3
7.109520 3.398470 18.167273 3
9.601700 3.398470 18.167273 3
10.651100 0.733900 18.462572 2
6.046350 0.733720 18.473373 2
6.024880 6.056500 18.506672 2
10.700700 6.056600 18.517572 2
7.132740 3.396980 19.582872 3
9.578500 3.396990 19.582872 3
10.527700 3.396120 20.123173 2
6.183460 3.396210 20.123173 2
8.355610 3.396180 20.287172 3
8.355610 3.394790 21.378372 2
%endblock AtomicCoordinatesAndAtomicSpecies
