# Atomic coordinates
NumberOfAtoms 72
AtomicCoordinatesFormat Ang
%block AtomicCoordinatesAndAtomicSpecies
    8.324694000     5.767517000    30.796695000 1
    8.324694000     2.883758000    30.796695000 1
    8.324694000     0.000000000    30.796695000 1
    5.827285000     7.209396000    30.796695000 1
    5.827285000     4.325637000    30.796695000 1
    5.827285000     1.441879000    30.796695000 1
    3.329877000     5.767517000    30.796695000 1
    3.329877000     2.883758000    30.796695000 1
    3.329877000     0.000000000    30.796695000 1
   18.314325000     5.767517000    30.796695000 1
   18.314325000     2.883758000    30.796695000 1
   18.314325000     0.000000000    30.796695000 1
   15.816917000     7.209396000    30.796695000 1
   15.816917000     4.325637000    30.796695000 1
   15.816917000     1.441879000    30.796695000 1
   13.319510000     5.767517000    30.796695000 1
   13.319510000     2.883758000    30.796695000 1
   13.319510000     0.000000000    30.796695000 1
   10.822102000     7.209396000    30.796695000 1
   10.822102000     4.325637000    30.796695000 1
   10.822102000     1.441879000    30.796695000 1
    0.832469000     7.209396000    30.796695000 1
    0.832469000     4.325637000    30.796695000 1
    0.832469000     1.441879000    30.796695000 1
    9.157162000     7.209396000    33.151273000 1
    9.157162000     4.325637000    33.151273000 1
    9.157162000     1.441879000    33.151273000 1
    6.659755000     5.767517000    33.151273000 1
    6.659755000     2.883758000    33.151273000 1
    6.659755000     0.000000000    33.151273000 1
    4.162346000     7.209396000    33.151273000 1
    4.162346000     4.325637000    33.151273000 1
    4.162346000     1.441879000    33.151273000 1
   19.146793000     7.209396000    33.151273000 1
   19.146793000     4.325637000    33.151273000 1
   19.146793000     1.441879000    33.151273000 1
    1.664939000     5.767517000    33.151273000 1
    1.664939000     2.883758000    33.151273000 1
    1.664939000     0.000000000    33.151273000 1
   16.649385000     5.767517000    33.151273000 1
   16.649385000     2.883758000    33.151273000 1
   16.649385000     0.000000000    33.151273000 1
   14.151978000     7.209396000    33.151273000 1
   14.151978000     4.325637000    33.151273000 1
   14.151978000     1.441879000    33.151273000 1
   11.654570000     5.767517000    33.151273000 1
   11.654570000     2.883758000    33.151273000 1
   11.654570000     0.000000000    33.151273000 1
    9.989632000     5.767517000    35.505852000 1
    9.989632000     2.883758000    35.505852000 1
    9.989632000     0.000000000    35.505852000 1
    7.492224000     7.209396000    35.505852000 1
    7.492224000     4.325637000    35.505852000 1
    7.492224000     1.441879000    35.505852000 1
    4.994816000     5.767517000    35.505852000 1
    4.994816000     2.883758000    35.505852000 1
    4.994816000     0.000000000    35.505852000 1
    2.497408000     7.209396000    35.505852000 1
    2.497408000     4.325637000    35.505852000 1
    2.497408000     1.441879000    35.505852000 1
   17.481855000     7.209396000    35.505852000 1
   17.481855000     4.325637000    35.505852000 1
   17.481855000     1.441879000    35.505852000 1
   14.984447000     5.767517000    35.505852000 1
   14.984447000     2.883758000    35.505852000 1
   14.984447000     0.000000000    35.505852000 1
   12.487040000     7.209396000    35.505852000 1
   12.487040000     4.325637000    35.505852000 1
   12.487040000     1.441879000    35.505852000 1
    0.000000000     5.767517000    35.505852000 1
    0.000000000     2.883758000    35.505852000 1
    0.000000000     0.000000000    35.505852000 1
%endblock AtomicCoordinatesAndAtomicSpecies