# Atomic coordinates
NumberOfAtoms 144
AtomicCoordinatesFormat Ang
%block AtomicCoordinatesAndAtomicSpecies
0.832469 1.441879 23.732950 1
0.832469 4.325637 23.732950 1
0.832469 7.209396 23.732950 1
10.822102 1.441879 23.732950 1
10.822102 4.325637 23.732950 1
10.822102 7.209396 23.732950 1
13.319510 0.000000 23.732950 1
13.319510 2.883758 23.732950 1
13.319510 5.767517 23.732950 1
15.816917 1.441879 23.732950 1
15.816917 4.325637 23.732950 1
15.816917 7.209396 23.732950 1
18.314325 0.000000 23.732950 1
18.314325 2.883758 23.732950 1
18.314325 5.767517 23.732950 1
3.329877 0.000000 23.732950 1
3.329877 2.883758 23.732950 1
3.329877 5.767517 23.732950 1
5.827285 1.441879 23.732950 1
5.827285 4.325637 23.732950 1
5.827285 7.209396 23.732950 1
8.324694 0.000000 23.732950 1
8.324694 2.883758 23.732950 1
8.324694 5.767517 23.732950 1
11.654570 0.000000 26.087551 1
11.654570 2.883758 26.087551 1
11.654570 5.767517 26.087551 1
14.151978 1.441879 26.087551 1
14.151978 4.325637 26.087551 1
14.151978 7.209396 26.087551 1
16.649385 0.000000 26.087551 1
16.649385 2.883758 26.087551 1
16.649385 5.767517 26.087551 1
1.664939 0.000000 26.087551 1
1.664939 2.883758 26.087551 1
1.664939 5.767517 26.087551 1
19.146793 1.441879 26.087551 1
19.146793 4.325637 26.087551 1
19.146793 7.209396 26.087551 1
4.162346 1.441879 26.087551 1
4.162346 4.325637 26.087551 1
4.162346 7.209396 26.087551 1
6.659755 0.000000 26.087551 1
6.659755 2.883758 26.087551 1
6.659755 5.767517 26.087551 1
9.157162 1.441879 26.087551 1
9.157162 4.325637 26.087551 1
9.157162 7.209396 26.087551 1
0.000000 0.000000 28.442150 1
0.000000 2.883758 28.442150 1
0.000000 5.767517 28.442150 1
12.487040 1.441879 28.442150 1
12.487040 4.325637 28.442150 1
12.487040 7.209396 28.442150 1
14.984447 0.000000 28.442150 1
14.984447 2.883758 28.442150 1
14.984447 5.767517 28.442150 1
17.481855 1.441879 28.442150 1
17.481855 4.325637 28.442150 1
17.481855 7.209396 28.442150 1
2.497408 1.441879 28.442150 1
2.497408 4.325637 28.442150 1
2.497408 7.209396 28.442150 1
4.994816 0.000000 28.442150 1
4.994816 2.883758 28.442150 1
4.994816 5.767517 28.442150 1
7.492224 1.441879 28.442150 1
7.492224 4.325637 28.442150 1
7.492224 7.209396 28.442150 1
9.989632 0.000000 28.442150 1
9.989632 2.883758 28.442150 1
9.989632 5.767517 28.442150 1
0.832469 1.441879 30.796650 1
0.832469 4.325637 30.796650 1
0.832469 7.209396 30.796650 1
13.319509 2.883758 30.796650 1
13.319509 5.767516 30.796650 1
13.319509 8.651275 30.796650 1
15.816916 1.441879 30.796650 1
15.816916 4.325637 30.796650 1
15.816916 7.209396 30.796650 1
18.314323 2.883758 30.796650 1
18.314323 5.767516 30.796650 1
18.314323 8.651275 30.796650 1
3.329877 2.883758 30.796650 1
3.329877 5.767516 30.796650 1
3.329877 8.651275 30.796650 1
5.827285 1.441879 30.796650 1
5.827285 4.325637 30.796650 1
5.827285 7.209396 30.796650 1
8.324693 2.883758 30.796650 1
8.324693 5.767516 30.796650 1
8.324693 8.651275 30.796650 1
10.822101 1.441879 30.796650 1
10.822101 4.325637 30.796650 1
10.822101 7.209396 30.796650 1
12.487039 1.441879 33.151249 1
12.487039 4.325637 33.151249 1
12.487039 7.209396 33.151249 1
14.984447 2.883758 33.151249 1
14.984447 5.767516 33.151249 1
14.984447 8.651275 33.151249 1
17.481853 1.441879 33.151249 1
17.481853 4.325637 33.151249 1
17.481853 7.209396 33.151249 1
2.497408 1.441879 33.151249 1
2.497408 4.325637 33.151249 1
2.497408 7.209396 33.151249 1
19.979261 2.883758 33.151249 1
19.979261 5.767516 33.151249 1
19.979261 8.651275 33.151249 1
4.994815 2.883758 33.151249 1
4.994815 5.767516 33.151249 1
4.994815 8.651275 33.151249 1
7.492224 1.441879 33.151249 1
7.492224 4.325637 33.151249 1
7.492224 7.209396 33.151249 1
9.989631 2.883758 33.151249 1
9.989631 5.767516 33.151249 1
9.989631 8.651275 33.151249 1
1.664938 2.883758 35.505852 1
1.664938 5.767516 35.505852 1
1.664938 8.651275 35.505852 1
11.654571 2.883758 35.505852 1
11.654571 5.767516 35.505852 1
11.654571 8.651275 35.505852 1
14.151979 1.441879 35.505852 1
14.151979 4.325637 35.505852 1
14.151979 7.209396 35.505852 1
16.649385 2.883758 35.505852 1
16.649385 5.767516 35.505852 1
16.649385 8.651275 35.505852 1
19.146793 1.441879 35.505852 1
19.146793 4.325637 35.505852 1
19.146793 7.209396 35.505852 1
4.162346 1.441879 35.505852 1
4.162346 4.325637 35.505852 1
4.162346 7.209396 35.505852 1
6.659754 2.883758 35.505852 1
6.659754 5.767516 35.505852 1
6.659754 8.651275 35.505852 1
9.157163 1.441879 35.505852 1
9.157163 4.325637 35.505852 1
9.157163 7.209396 35.505852 1
%endblock AtomicCoordinatesAndAtomicSpecies
